pyclupan: 3-1-4
   1.00000000000000
     0.0000000000000000    2.0342326310800805    2.0342326310800805
     3.5349919544611699    0.0000000000000000    0.0000000000000000
    -1.7674959772305849    2.3344448885334694   -4.3686775196135494
   Cu   Au
     1     2
Direct
  0.3333333333333357  0.3333333333333357  0.6666666666666643
  0.9877603482312836  0.9877603482312836  0.9755206964625742
  0.6789063184353807  0.6789063184353807  0.3578126368707615

  0.00000000E+00  0.00000000E+00  0.00000000E+00
  0.00000000E+00  0.00000000E+00  0.00000000E+00
  0.00000000E+00  0.00000000E+00  0.00000000E+00
