pyclupan: 5-0-2
   1.00000000000000
     0.0000000000000000    2.0674074383102115    2.0674074383102115
    -2.0674074383102115    0.0000000000000000   -2.0674074383102115
    -6.2530573010370940   -8.3204647393473081    6.2530573010370940
   Ag   Au
     3     2
Direct
  0.3992097133626658  0.1996048566813400  0.5988145700440057
  0.6000000000000014  0.7999999999999972  0.3999999999999986
  0.8007902866373300  0.4003951433186614  0.2011854299559985
  0.0013685853781098  0.0006842926890513  0.0020528780671683
  0.1986314146218930  0.5993157073109501  0.7979471219328289

  0.00000000E+00  0.00000000E+00  0.00000000E+00
  0.00000000E+00  0.00000000E+00  0.00000000E+00
  0.00000000E+00  0.00000000E+00  0.00000000E+00
  0.00000000E+00  0.00000000E+00  0.00000000E+00
  0.00000000E+00  0.00000000E+00  0.00000000E+00
