pyclupan: 5-3-4
   1.00000000000000
     0.0000000000000000   -2.0708858726689265    2.0708858726689265
     0.0000000000000000   -2.0708858726689265   -2.0708858726689265
    10.4097619650489079    2.0708858726689265    0.0000000000000000
   Ag   Au
     2     3
Direct
  0.8000374417643883  0.8000374417643883  0.6000748835287837
  0.3999625582356074  0.3999625582356074  0.7999251164712149
  0.9993301368745975  0.9993301368745975  0.9986602737491950
  0.6000000000000014  0.6000000000000014  0.2000000000000028
  0.2006698631254054  0.2006698631254054  0.4013397262508036

  0.00000000E+00  0.00000000E+00  0.00000000E+00
  0.00000000E+00  0.00000000E+00  0.00000000E+00
  0.00000000E+00  0.00000000E+00  0.00000000E+00
  0.00000000E+00  0.00000000E+00  0.00000000E+00
  0.00000000E+00  0.00000000E+00  0.00000000E+00
