pyclupan: 6-1-38
   1.00000000000000
     0.0000000000000000    2.0354828791889799    2.0354828791889799
     3.7257983764814582    0.0000000000000001    0.0000000000000001
     0.0000000000000000    6.3378656707273970   -6.3378656707273970
   Cu   Ag   Au
     2     1     3
Direct
  0.5000000000000000  0.5000000000000000  0.5111292184759648
  0.5000000000000000  0.5000000000000000  0.8244477164941415
  0.0000000000000000  0.0000000000000000  0.3496333902493518
  0.0000000000000000  0.0000000000000000  0.9812719328776538
  0.5000000000000000  0.5000000000000000  0.1692910033551698
  0.0000000000000000  0.0000000000000000  0.6642267385477183

  0.00000000E+00  0.00000000E+00  0.00000000E+00
  0.00000000E+00  0.00000000E+00  0.00000000E+00
  0.00000000E+00  0.00000000E+00  0.00000000E+00
  0.00000000E+00  0.00000000E+00  0.00000000E+00
  0.00000000E+00  0.00000000E+00  0.00000000E+00
  0.00000000E+00  0.00000000E+00  0.00000000E+00
