pyclupan: 4-6-3
1.0
   4.000000000000000 0.000000000000000 0.000000000000000
   0.000000000000000 11.313708498984761 0.000000000000000
   0.000000000000000 0.000000000000000 11.313708498984761
 Sr  Cu  O
 8  8  20
Direct
   0.000000000000000 0.000000000000000 0.000000000000000
   0.000000000000000 0.250000000000000 0.250000000000000
   0.000000000000000 0.750000000000000 0.250000000000000
   0.000000000000000 0.000000000000000 0.500000000000000
   0.000000000000000 0.500000000000000 0.500000000000000
   0.000000000000000 0.750000000000000 0.750000000000000
   0.000000000000000 0.250000000000000 0.750000000000000
   0.000000000000000 0.500000000000000 0.000000000000000
   0.500000000000000 0.000000000000000 0.250000000000000
   0.500000000000000 0.250000000000000 0.500000000000000
   0.500000000000000 0.750000000000000 0.500000000000000
   0.500000000000000 0.000000000000000 0.750000000000000
   0.500000000000000 0.500000000000000 0.750000000000000
   0.500000000000000 0.750000000000000 0.000000000000000
   0.500000000000000 0.250000000000000 0.000000000000000
   0.500000000000000 0.500000000000000 0.250000000000000
   0.500000000000000 0.375000000000000 0.375000000000000
   0.500000000000000 0.875000000000000 0.375000000000000
   0.500000000000000 0.125000000000000 0.625000000000000
   0.000000000000000 0.000000000000000 0.250000000000000
   0.000000000000000 0.250000000000000 0.500000000000000
   0.000000000000000 0.750000000000000 0.500000000000000
   0.000000000000000 0.000000000000000 0.750000000000000
   0.500000000000000 0.125000000000000 0.375000000000000
   0.500000000000000 0.625000000000000 0.375000000000000
   0.500000000000000 0.875000000000000 0.625000000000000
   0.500000000000000 0.875000000000000 0.875000000000000
   0.500000000000000 0.375000000000000 0.875000000000000
   0.500000000000000 0.625000000000000 0.125000000000000
   0.000000000000000 0.500000000000000 0.750000000000000
   0.000000000000000 0.750000000000000 0.000000000000000
   0.000000000000000 0.250000000000000 0.000000000000000
   0.000000000000000 0.500000000000000 0.250000000000000
   0.500000000000000 0.625000000000000 0.875000000000000
   0.500000000000000 0.125000000000000 0.875000000000000
   0.500000000000000 0.375000000000000 0.125000000000000
