pyclupan: 4-7-836
   1.00000000000000
     5.3835214943327916    0.0031020090315104   -0.0001386489361620
     0.0034824270220943    5.9552840052106637   -0.0455448212235268
    -0.0017192416333966   -2.6511016826666163    5.3357973399974492
   Si   Al   C    N
     3     5     3     5
Direct
  0.6715392943777374  0.7498265683289063  0.2499888589332144
  0.1677546398405099  0.9973997953691409  0.5044902784328613
  0.6703847156671614  0.2448848078727863  0.7553965616945106
  0.3328517040753098  0.0052163617255800  0.0033330425361768
  0.8327154807154571  0.2542001692720959  0.2440836948384373
  0.3385982798880534  0.5002020207103612  0.4929283978012649
  0.8274926749404941  0.7576902794503440  0.7444553166285246
  0.1623817921288193  0.4942334921638363  0.0018615544178928
  0.8391850950501478  0.0559696015624738  0.4452198605941078
  0.8155297468736720  0.5594770097271393  0.9377281321472068
  0.6603044315232367  0.0691722727078172  0.9336740929228995
  0.3378860166685058  0.8162289574849666  0.2104922025082772
  0.3379332863391369  0.2948645548245494  0.6770492872892930
  0.1688508450864248  0.3138821032107231  0.1931023584234310
  0.6649157555043814  0.5713908424399392  0.4272784876551441
  0.1716762413209452  0.8153611631493476  0.6789178731767436

  0.00000000E+00  0.00000000E+00  0.00000000E+00
  0.00000000E+00  0.00000000E+00  0.00000000E+00
  0.00000000E+00  0.00000000E+00  0.00000000E+00
  0.00000000E+00  0.00000000E+00  0.00000000E+00
  0.00000000E+00  0.00000000E+00  0.00000000E+00
  0.00000000E+00  0.00000000E+00  0.00000000E+00
  0.00000000E+00  0.00000000E+00  0.00000000E+00
  0.00000000E+00  0.00000000E+00  0.00000000E+00
  0.00000000E+00  0.00000000E+00  0.00000000E+00
  0.00000000E+00  0.00000000E+00  0.00000000E+00
  0.00000000E+00  0.00000000E+00  0.00000000E+00
  0.00000000E+00  0.00000000E+00  0.00000000E+00
  0.00000000E+00  0.00000000E+00  0.00000000E+00
  0.00000000E+00  0.00000000E+00  0.00000000E+00
  0.00000000E+00  0.00000000E+00  0.00000000E+00
  0.00000000E+00  0.00000000E+00  0.00000000E+00
