pyclupan: 4-6-426
   1.00000000000000
     5.9672604244256036   -0.0501232821849772   -0.0056552057116111
    -2.6605994321198101    5.3385274888900476    0.0080822703947788
    -1.6583150572200527   -2.6386339573037549    5.3755493879199072
   Si   Al   C    N
     5     3     5     3
Direct
  0.6544909842382296  0.6700766609493485  0.8332226512471763
  0.5894134908973783  0.0743332488362114  0.1613469142634827
  0.5844761350423653  0.0811427324980087  0.6708495494386355
  0.0882808976106730  0.5751000589923052  0.1639917572742959
  0.0929747238490108  0.5812669507328891  0.6696431406027941
  0.1678733314101351  0.1717649306082905  0.3332185152264771
  0.1636722423385777  0.1742941232665913  0.8356969933506306
  0.6586769116026261  0.6673366597128307  0.3317840694912846
  0.3566857895617659  0.9727030958785789  0.8312422625707825
  0.8501186784982409  0.4819670926962800  0.8292118768069301
  0.7680954670090330  0.8947509088523091  0.1583105370099176
  0.2640253029206789  0.4028870182652682  0.1686190479469545
  0.2768555412178557  0.4083534579699020  0.6686328868745548
  0.3684497532849988  0.9737542980199194  0.3369940410948900
  0.8579578208200260  0.4740488352946102  0.3360109286899302
  0.7579529296984049  0.8962199274266567  0.6712248281112636

  0.00000000E+00  0.00000000E+00  0.00000000E+00
  0.00000000E+00  0.00000000E+00  0.00000000E+00
  0.00000000E+00  0.00000000E+00  0.00000000E+00
  0.00000000E+00  0.00000000E+00  0.00000000E+00
  0.00000000E+00  0.00000000E+00  0.00000000E+00
  0.00000000E+00  0.00000000E+00  0.00000000E+00
  0.00000000E+00  0.00000000E+00  0.00000000E+00
  0.00000000E+00  0.00000000E+00  0.00000000E+00
  0.00000000E+00  0.00000000E+00  0.00000000E+00
  0.00000000E+00  0.00000000E+00  0.00000000E+00
  0.00000000E+00  0.00000000E+00  0.00000000E+00
  0.00000000E+00  0.00000000E+00  0.00000000E+00
  0.00000000E+00  0.00000000E+00  0.00000000E+00
  0.00000000E+00  0.00000000E+00  0.00000000E+00
  0.00000000E+00  0.00000000E+00  0.00000000E+00
  0.00000000E+00  0.00000000E+00  0.00000000E+00
