pyclupan: 6-0-67
   1.00000000000000
     2.0490157496715944    0.0000000000000000    2.0490157496715944
     0.0000000000000000   -2.0490157496715944   -2.0490157496715944
     8.0986445624613044    8.0986445624613044   -8.0986445624613062
   Cu   Ag   Au
     1     2     3
Direct
  0.6666666666666643  0.3333333333333357  0.8329774621034503
  0.0000000000000000  0.0000000000000000  0.5083485107135886
  0.3333333333333357  0.6666666666666643  0.6804896173158141
  0.0000000000000000  0.0000000000000000  0.9832539191291190
  0.3333333333333357  0.6666666666666643  0.1592751442114491
  0.6666666666666643  0.3333333333333357  0.3356553465265861

  0.00000000E+00  0.00000000E+00  0.00000000E+00
  0.00000000E+00  0.00000000E+00  0.00000000E+00
  0.00000000E+00  0.00000000E+00  0.00000000E+00
  0.00000000E+00  0.00000000E+00  0.00000000E+00
  0.00000000E+00  0.00000000E+00  0.00000000E+00
  0.00000000E+00  0.00000000E+00  0.00000000E+00
