pyclupan: 6-1-5
   1.00000000000000
     0.0000000000000000    2.0575366473066157    2.0575366473066157
     4.1945183603151870    0.0000000000000000    0.0000000000000000
     0.0000000000000000    6.1979770334554871   -6.1979770334554871
   Ag   Au
     2     4
Direct
  0.5000000000000000  0.5000000000000000  0.5004539120334783
  0.5000000000000000  0.5000000000000000  0.8328794212998574
  0.0000000000000000  0.0000000000000000  0.9983919132501882
  0.5000000000000000  0.5000000000000000  0.1666666666666643
  0.0000000000000000  0.0000000000000000  0.3349414200831475
  0.0000000000000000  0.0000000000000000  0.6666666666666643

  0.00000000E+00  0.00000000E+00  0.00000000E+00
  0.00000000E+00  0.00000000E+00  0.00000000E+00
  0.00000000E+00  0.00000000E+00  0.00000000E+00
  0.00000000E+00  0.00000000E+00  0.00000000E+00
  0.00000000E+00  0.00000000E+00  0.00000000E+00
  0.00000000E+00  0.00000000E+00  0.00000000E+00
