pyclupan: 3-2-48
   1.00000000000000
     5.4243667758486636    0.0139423926490995   -0.0260906943822774
     2.7242769102206976    4.6840267428915352   -0.0162295375675948
     2.6918509931816996    1.5626198968657934    5.0243960997873858
   Si   Al   C    N
     2     4     2     4
Direct
  0.0106029351252772  0.6673858867376907  0.9888121496548905
  0.1679316958946444  0.5048333528439812  0.4993303986366513
  0.6645769976227882  0.3363400546373541  0.9985406321945192
  0.3358417208441011  0.9997379820989778  0.9909807352091704
  0.8339051746693897  0.1625500039580885  0.5060343513883865
  0.4962646103889981  0.8334376830382197  0.5010490855678000
  0.3588960131036742  0.7046447017011914  0.8798702601598762
  0.0399001523361235  0.3948508470625285  0.8655263552527828
  0.5239638400532627  0.2215816895892146  0.3869558975933458
  0.2038956987162521  0.8614531511266250  0.3765288409208551
  0.8954201771941541  0.5421359537607700  0.3647697086177004
  0.7188009840513274  0.0210486934453513  0.8916015848040217

  0.00000000E+00  0.00000000E+00  0.00000000E+00
  0.00000000E+00  0.00000000E+00  0.00000000E+00
  0.00000000E+00  0.00000000E+00  0.00000000E+00
  0.00000000E+00  0.00000000E+00  0.00000000E+00
  0.00000000E+00  0.00000000E+00  0.00000000E+00
  0.00000000E+00  0.00000000E+00  0.00000000E+00
  0.00000000E+00  0.00000000E+00  0.00000000E+00
  0.00000000E+00  0.00000000E+00  0.00000000E+00
  0.00000000E+00  0.00000000E+00  0.00000000E+00
  0.00000000E+00  0.00000000E+00  0.00000000E+00
  0.00000000E+00  0.00000000E+00  0.00000000E+00
  0.00000000E+00  0.00000000E+00  0.00000000E+00
