pyclupan: 6-6-7
   1.00000000000000
     4.1525426549757274    0.0000000000000000    0.0000000000000000
    -2.0762713274878637   -4.1520247021201193   -2.0768413007519166
     0.0000000000000000    4.1484518583488148   -4.1465364169425012
   Ag   Au
     1     5
Direct
  0.6666666666666643  0.3333333333333357  0.8333333333333357
  0.0000907701030357  0.0001815402060714  0.9995508420712227
  0.3330497092969367  0.6660994185938591  0.1659175311579872
  0.6666666666666643  0.3333333333333357  0.3333333333333357
  0.0002836240363990  0.0005672480728052  0.5007491355086771
  0.3332425632303000  0.6664851264605929  0.6671158245954416

  0.00000000E+00  0.00000000E+00  0.00000000E+00
  0.00000000E+00  0.00000000E+00  0.00000000E+00
  0.00000000E+00  0.00000000E+00  0.00000000E+00
  0.00000000E+00  0.00000000E+00  0.00000000E+00
  0.00000000E+00  0.00000000E+00  0.00000000E+00
  0.00000000E+00  0.00000000E+00  0.00000000E+00
