pyclupan: 2-1-15
   1.00000000000000
    11.4589400162594384    0.0000000000000000    0.0310542281207646
     0.0000000000000000    3.1275348049258453    0.0000000000000000
    -2.5829062613873064    0.0000000000000000    4.7664193432371409
   Si   Al   C    N
     2     6     2     6
Direct
  0.7428028834134750  0.0000000000000000  0.4026244951652274
  0.2428028834134750  0.5000000000000000  0.4026244951652274
  0.0044719661670811  0.0000000000000000  0.3419460488526056
  0.0060797844686675  0.5000000000000000  0.8368216755716276
  0.7494272596659428  0.5000000000000000  0.9195524279340788
  0.5044719661670811  0.5000000000000000  0.3419460488526056
  0.5060797844686675  0.0000000000000000  0.8368216755716276
  0.2494272596659428  0.0000000000000000  0.9195524279340788
  0.5657947603511957  0.0000000000000000  0.2339003211948736
  0.0657947603511957  0.5000000000000000  0.2339003211948736
  0.8088092644633136  0.0000000000000000  0.1579287583218942
  0.8099027874136127  0.5000000000000000  0.6274577088345268
  0.5627112940567258  0.5000000000000000  0.7297685641251732
  0.3088092644633136  0.5000000000000000  0.1579287583218942
  0.3099027874136127  0.0000000000000000  0.6274577088345268
  0.0627112940567258  0.0000000000000000  0.7297685641251732

  0.00000000E+00  0.00000000E+00  0.00000000E+00
  0.00000000E+00  0.00000000E+00  0.00000000E+00
  0.00000000E+00  0.00000000E+00  0.00000000E+00
  0.00000000E+00  0.00000000E+00  0.00000000E+00
  0.00000000E+00  0.00000000E+00  0.00000000E+00
  0.00000000E+00  0.00000000E+00  0.00000000E+00
  0.00000000E+00  0.00000000E+00  0.00000000E+00
  0.00000000E+00  0.00000000E+00  0.00000000E+00
  0.00000000E+00  0.00000000E+00  0.00000000E+00
  0.00000000E+00  0.00000000E+00  0.00000000E+00
  0.00000000E+00  0.00000000E+00  0.00000000E+00
  0.00000000E+00  0.00000000E+00  0.00000000E+00
  0.00000000E+00  0.00000000E+00  0.00000000E+00
  0.00000000E+00  0.00000000E+00  0.00000000E+00
  0.00000000E+00  0.00000000E+00  0.00000000E+00
  0.00000000E+00  0.00000000E+00  0.00000000E+00
