pyclupan: 3-3-27
   1.00000000000000
    16.4883330732512121    0.0000000000000000    0.0791649652665473
     0.0000000000000000    3.1168229852865577    0.0000000000000000
     0.0243729130649494    0.0000000000000000    5.0260998038917091
   Si   Al   C    N
     8     4     8     4
Direct
  0.2209633645488438  0.0000000000000000  0.0101326016793593
  0.0547188719727600  0.5000000000000000  0.0128338399728065
  0.2801865290279792  0.5000000000000000  0.4942203238099907
  0.1140804727409872  0.0000000000000000  0.5019828499040599
  0.7209633645488438  0.5000000000000000  0.0101326016793593
  0.5547188719727600  0.0000000000000000  0.0128338399728065
  0.7801865290279792  0.0000000000000000  0.4942203238099907
  0.6140804727409872  0.5000000000000000  0.5019828499040599
  0.3911593505566273  0.5000000000000000  0.0014445710856776
  0.4366903862285270  0.0000000000000000  0.4889044786813130
  0.8911593505566273  0.0000000000000000  0.0014445710856776
  0.9366903862285270  0.5000000000000000  0.4889044786813130
  0.3793664938723822  0.5000000000000000  0.6145075442837467
  0.4524127651811582  0.0000000000000000  0.1069483239190774
  0.2696705073841414  0.5000000000000000  0.1263781446793217
  0.1124344166131976  0.0000000000000000  0.1275174400489547
  0.8793664938723822  0.0000000000000000  0.6145075442837467
  0.9524127651811582  0.5000000000000000  0.1069483239190774
  0.7696705073841414  0.0000000000000000  0.1263781446793217
  0.6124344166131976  0.5000000000000000  0.1275174400489547
  0.2185861105664344  0.0000000000000000  0.6295695381133868
  0.0697307313069615  0.5000000000000000  0.6355603438223199
  0.7185861105664344  0.5000000000000000  0.6295695381133868
  0.5697307313069615  0.0000000000000000  0.6355603438223199

  0.00000000E+00  0.00000000E+00  0.00000000E+00
  0.00000000E+00  0.00000000E+00  0.00000000E+00
  0.00000000E+00  0.00000000E+00  0.00000000E+00
  0.00000000E+00  0.00000000E+00  0.00000000E+00
  0.00000000E+00  0.00000000E+00  0.00000000E+00
  0.00000000E+00  0.00000000E+00  0.00000000E+00
  0.00000000E+00  0.00000000E+00  0.00000000E+00
  0.00000000E+00  0.00000000E+00  0.00000000E+00
  0.00000000E+00  0.00000000E+00  0.00000000E+00
  0.00000000E+00  0.00000000E+00  0.00000000E+00
  0.00000000E+00  0.00000000E+00  0.00000000E+00
  0.00000000E+00  0.00000000E+00  0.00000000E+00
  0.00000000E+00  0.00000000E+00  0.00000000E+00
  0.00000000E+00  0.00000000E+00  0.00000000E+00
  0.00000000E+00  0.00000000E+00  0.00000000E+00
  0.00000000E+00  0.00000000E+00  0.00000000E+00
  0.00000000E+00  0.00000000E+00  0.00000000E+00
  0.00000000E+00  0.00000000E+00  0.00000000E+00
  0.00000000E+00  0.00000000E+00  0.00000000E+00
  0.00000000E+00  0.00000000E+00  0.00000000E+00
  0.00000000E+00  0.00000000E+00  0.00000000E+00
  0.00000000E+00  0.00000000E+00  0.00000000E+00
  0.00000000E+00  0.00000000E+00  0.00000000E+00
  0.00000000E+00  0.00000000E+00  0.00000000E+00
