pyclupan: 5-3-1
   1.00000000000000
     0.0000000000000000   -2.0637087528265354    2.0637087528265354
     0.0000000000000000   -2.0637087528265354   -2.0637087528265354
    10.4488092845650069    2.0637087528265354    0.0000000000000000
   Ag   Au
     3     2
Direct
  0.6000000000000014  0.6000000000000014  0.2000000000000028
  0.8001314825211736  0.8001314825211736  0.6002629650423472
  0.3998685174788221  0.3998685174788221  0.7997370349576514
  0.9999301752843692  0.9999301752843692  0.9998603505687385
  0.2000698247156336  0.2000698247156336  0.4001396494312601

  0.00000000E+00  0.00000000E+00  0.00000000E+00
  0.00000000E+00  0.00000000E+00  0.00000000E+00
  0.00000000E+00  0.00000000E+00  0.00000000E+00
  0.00000000E+00  0.00000000E+00  0.00000000E+00
  0.00000000E+00  0.00000000E+00  0.00000000E+00
