pyclupan: 6-3-3
   1.00000000000000
     0.0000000000000000   -1.9605386303245640   -1.9605386303245640
    -3.5552260368006734    2.0232899697775957   -2.0232899697775957
     3.5315399901966673    4.0195936472056815   -4.0195936472056824
   Cu   Ag
     4     2
Direct
  0.5000000000000000  0.8333333333333357  0.3333333333333357
  0.5000000000000000  0.5364167761470284  0.0335012091169133
  0.0000000000000000  0.3333333333333357  0.3333333333333357
  0.5000000000000000  0.1302498905196359  0.6331654575497510
  0.0000000000000000  0.0459406306229440  0.9879000028711431
  0.0000000000000000  0.6207260360437203  0.6787666637955212

  0.00000000E+00  0.00000000E+00  0.00000000E+00
  0.00000000E+00  0.00000000E+00  0.00000000E+00
  0.00000000E+00  0.00000000E+00  0.00000000E+00
  0.00000000E+00  0.00000000E+00  0.00000000E+00
  0.00000000E+00  0.00000000E+00  0.00000000E+00
  0.00000000E+00  0.00000000E+00  0.00000000E+00
