pyclupan: 6-6-5
   1.00000000000000
     4.1461604938946888    0.0000000000000000    0.0000000000000000
    -2.0730802469473444   -4.1720631930770464   -2.0723803626023147
     0.0000000000000000    4.1618112734326473   -4.1242695258585682
   Ag   Au
     2     4
Direct
  0.9998901436496865  0.9997802872993660  0.5003925818573194
  0.6667765230169778  0.3335530460339697  0.8329407514760163
  0.0002725501799929  0.0005451003599788  0.9992290931064360
  0.3333333333333357  0.6666666666666643  0.1666666666666643
  0.6663941164866714  0.3327882329733569  0.3341042402268997
  0.3333333333333357  0.6666666666666643  0.6666666666666643

  0.00000000E+00  0.00000000E+00  0.00000000E+00
  0.00000000E+00  0.00000000E+00  0.00000000E+00
  0.00000000E+00  0.00000000E+00  0.00000000E+00
  0.00000000E+00  0.00000000E+00  0.00000000E+00
  0.00000000E+00  0.00000000E+00  0.00000000E+00
  0.00000000E+00  0.00000000E+00  0.00000000E+00
