pyclupan: 4-8-3
1.0
   11.313708498984761 0.000000000000000 0.000000000000000
   -5.656854249492381 9.797958971132713 0.000000000000000
   0.000000000000000 0.000000000000000 6.928203230275509
 Sr  Cu  O
 12  12  27
Direct
   0.000000000000000 0.000000000000000 0.000000000000000
   0.166666666666667 0.333333333333333 0.333333333333333
   0.666666666666667 0.833333333333333 0.333333333333333
   0.833333333333333 0.166666666666667 0.666666666666667
   0.666666666666667 0.333333333333333 0.333333333333333
   0.833333333333333 0.666666666666667 0.666666666666667
   0.333333333333333 0.166666666666667 0.666666666666667
   0.500000000000000 0.500000000000000 0.000000000000000
   0.333333333333333 0.666666666666667 0.666666666666667
   0.500000000000000 0.000000000000000 0.000000000000000
   0.000000000000000 0.500000000000000 0.000000000000000
   0.166666666666667 0.833333333333333 0.333333333333333
   0.000000000000000 0.000000000000000 0.500000000000000
   0.166666666666667 0.333333333333333 0.833333333333333
   0.666666666666667 0.833333333333333 0.833333333333333
   0.833333333333333 0.166666666666667 0.166666666666667
   0.666666666666667 0.333333333333333 0.833333333333333
   0.833333333333333 0.666666666666667 0.166666666666667
   0.333333333333333 0.166666666666667 0.166666666666667
   0.500000000000000 0.500000000000000 0.500000000000000
   0.333333333333333 0.666666666666667 0.166666666666667
   0.500000000000000 0.000000000000000 0.500000000000000
   0.000000000000000 0.500000000000000 0.500000000000000
   0.166666666666667 0.833333333333333 0.833333333333333
   0.666666666666667 0.083333333333333 0.333333333333333
   0.833333333333333 0.916666666666667 0.666666666666667
   0.000000000000000 0.250000000000000 0.000000000000000
   0.083333333333333 0.416666666666667 0.666666666666667
   0.583333333333333 0.916666666666667 0.666666666666667
   0.750000000000000 0.250000000000000 0.000000000000000
   0.083333333333333 0.166666666666667 0.666666666666667
   0.916666666666667 0.333333333333333 0.333333333333333
   0.750000000000000 0.000000000000000 0.000000000000000
   0.333333333333333 0.416666666666667 0.666666666666667
   0.500000000000000 0.250000000000000 0.000000000000000
   0.666666666666667 0.583333333333333 0.333333333333333
   0.750000000000000 0.750000000000000 0.000000000000000
   0.250000000000000 0.250000000000000 0.000000000000000
   0.416666666666667 0.583333333333333 0.333333333333333
   0.750000000000000 0.500000000000000 0.000000000000000
   0.583333333333333 0.666666666666667 0.666666666666667
   0.416666666666667 0.333333333333333 0.333333333333333
   0.000000000000000 0.750000000000000 0.000000000000000
   0.166666666666667 0.583333333333333 0.333333333333333
   0.333333333333333 0.916666666666667 0.666666666666667
   0.416666666666667 0.083333333333333 0.333333333333333
   0.916666666666667 0.583333333333333 0.333333333333333
   0.083333333333333 0.916666666666667 0.666666666666667
   0.416666666666667 0.833333333333333 0.333333333333333
   0.250000000000000 0.000000000000000 0.000000000000000
   0.083333333333333 0.666666666666667 0.666666666666667
