pyclupan: 4-9-65
   1.00000000000000
     5.0434810252726043    0.0000000000000000   -0.0099832753703138
     0.0000000000000000    6.2251673387885091    0.0000000000000000
    -0.0107298726979976    0.0000000000000000    5.4249950509005558
   Si   Al   C    N
     5     3     5     3
Direct
  0.9933139986662525  0.7530260447836667  0.8427657435382230
  0.9933139986662525  0.2469739552163333  0.8427657435382230
  0.5079233049151739  0.2506973909050103  0.1712750725651873
  0.5079233049151739  0.7493026090949897  0.1712750725651873
  0.4979922950447317  0.5000000000000000  0.6691301086800081
  0.9946078930214739  0.0000000000000000  0.3227873709545506
  0.9936963345680496  0.5000000000000000  0.3316619571983139
  0.4966091743406551  0.0000000000000000  0.6596250938923802
  0.3871640310231328  0.0000000000000000  0.3089323896557588
  0.3919637348252181  0.5000000000000000  0.3451450247623953
  0.8683639711234079  0.2553474382003174  0.1493583929193534
  0.8952644594524131  0.0000000000000000  0.6779659768941713
  0.8683639711234079  0.7446525617996826  0.1493583929193534
  0.3681166082089504  0.7306122203402268  0.8376040431761353
  0.3681166082089504  0.2693877796597732  0.8376040431761353
  0.8672663118967492  0.5000000000000000  0.6827455735646311

  0.00000000E+00  0.00000000E+00  0.00000000E+00
  0.00000000E+00  0.00000000E+00  0.00000000E+00
  0.00000000E+00  0.00000000E+00  0.00000000E+00
  0.00000000E+00  0.00000000E+00  0.00000000E+00
  0.00000000E+00  0.00000000E+00  0.00000000E+00
  0.00000000E+00  0.00000000E+00  0.00000000E+00
  0.00000000E+00  0.00000000E+00  0.00000000E+00
  0.00000000E+00  0.00000000E+00  0.00000000E+00
  0.00000000E+00  0.00000000E+00  0.00000000E+00
  0.00000000E+00  0.00000000E+00  0.00000000E+00
  0.00000000E+00  0.00000000E+00  0.00000000E+00
  0.00000000E+00  0.00000000E+00  0.00000000E+00
  0.00000000E+00  0.00000000E+00  0.00000000E+00
  0.00000000E+00  0.00000000E+00  0.00000000E+00
  0.00000000E+00  0.00000000E+00  0.00000000E+00
  0.00000000E+00  0.00000000E+00  0.00000000E+00
