pyclupan: 6-1-7
   1.00000000000000
     0.0000000000000000    2.0669033784814230    2.0669033784814230
     4.1696152386485590    0.0000000000000000    0.0000000000000000
     0.0000000000000000    6.2310697912569015   -6.2310697912569015
   Ag   Au
     1     5
Direct
  0.5000000000000000  0.5000000000000000  0.8333333333333357
  0.0000000000000000  0.0000000000000000  0.9986039513357525
  0.5000000000000000  0.5000000000000000  0.1657142686597410
  0.0000000000000000  0.0000000000000000  0.3333333333333357
  0.5000000000000000  0.5000000000000000  0.5009523980069233
  0.0000000000000000  0.0000000000000000  0.6680627153309118

  0.00000000E+00  0.00000000E+00  0.00000000E+00
  0.00000000E+00  0.00000000E+00  0.00000000E+00
  0.00000000E+00  0.00000000E+00  0.00000000E+00
  0.00000000E+00  0.00000000E+00  0.00000000E+00
  0.00000000E+00  0.00000000E+00  0.00000000E+00
  0.00000000E+00  0.00000000E+00  0.00000000E+00
