pyclupan: 6-0-3
   1.00000000000000
     2.0711875793976473    0.0000000000000000    2.0711875793976477
     0.0000000000000000   -2.0711875793976473   -2.0711875793976477
     8.3273517504904593    8.3273517504904593   -8.3273517504904593
   Ag   Au
     3     3
Direct
  0.6666666666666643  0.3333333333333357  0.3333002335686999
  0.3333333333333357  0.6666666666666643  0.6675989004080094
  0.6666666666666643  0.3333333333333357  0.8324421127202584
  0.0000000000000000  0.0000000000000000  0.9984694592960253
  0.3333333333333357  0.6666666666666643  0.1684551505462295
  0.0000000000000000  0.0000000000000000  0.4997341434607776

  0.00000000E+00  0.00000000E+00  0.00000000E+00
  0.00000000E+00  0.00000000E+00  0.00000000E+00
  0.00000000E+00  0.00000000E+00  0.00000000E+00
  0.00000000E+00  0.00000000E+00  0.00000000E+00
  0.00000000E+00  0.00000000E+00  0.00000000E+00
  0.00000000E+00  0.00000000E+00  0.00000000E+00
