pyclupan: 6-6-1
   1.00000000000000
     4.1455600484888615    0.0000000000000000    0.0000000000000000
    -2.0727800242444308   -4.1480660328143548   -2.0727516637349557
     0.0000000000000000    4.1462101521654731   -4.1417912854692878
   Ag   Au
     4     2
Direct
  0.3333333333333357  0.6666666666666643  0.1666666666666643
  0.9998873759641924  0.9997747519283919  0.5002970997817471
  0.3333333333333357  0.6666666666666643  0.6666666666666643
  0.6667792907024719  0.3335585814049438  0.8330362335515886
  0.9999362846181157  0.9998725692362314  0.9995029469546495
  0.6667303820485486  0.3334607640971043  0.3338303863786862

  0.00000000E+00  0.00000000E+00  0.00000000E+00
  0.00000000E+00  0.00000000E+00  0.00000000E+00
  0.00000000E+00  0.00000000E+00  0.00000000E+00
  0.00000000E+00  0.00000000E+00  0.00000000E+00
  0.00000000E+00  0.00000000E+00  0.00000000E+00
  0.00000000E+00  0.00000000E+00  0.00000000E+00
