pyclupan: 4-3-619
   1.00000000000000
     5.4203143019981281    0.0274833358410097    0.0192534983258478
    -2.6830985908650278    5.2451367481609159   -0.0089764069102670
     0.0117668975490954   -1.8702782883942561    5.9640138578037591
   Si   Al   C    N
     4     4     4     4
Direct
  0.8255300988657837  0.0015097551741334  0.7461858704011775
  0.3313321978136798  0.9931905713627032  0.4988340849648552
  0.4068164049962988  0.5108648313416779  0.8786132678283707
  0.4132372479486150  0.5093304748020415  0.3768409056514628
  0.8312765389795587  0.9885145842160057  0.2502590336371640
  0.3552069417691328  0.0213583915739335  0.0059446623478081
  0.9285687160664224  0.4982746762796708  0.1194418835076121
  0.9196253900225173  0.5031981731181716  0.6298331062996994
  0.6194506760968679  0.5866076346705356  0.1441798243142358
  0.1613846714168901  0.6368437384742904  0.9056130866503693
  0.1531791917532885  0.6298408158483184  0.4092942058687328
  0.7086043505657358  0.1113138161834470  0.5399043949319662
  0.6359283954236616  0.6296194839989582  0.6581853812755440
  0.7503427786758081  0.1102242538727936  0.0171303808867265
  0.2138386786020945  0.1282364944253302  0.7656307759194902
  0.2456777210036520  0.1410723046579889  0.3041091355147927

  0.00000000E+00  0.00000000E+00  0.00000000E+00
  0.00000000E+00  0.00000000E+00  0.00000000E+00
  0.00000000E+00  0.00000000E+00  0.00000000E+00
  0.00000000E+00  0.00000000E+00  0.00000000E+00
  0.00000000E+00  0.00000000E+00  0.00000000E+00
  0.00000000E+00  0.00000000E+00  0.00000000E+00
  0.00000000E+00  0.00000000E+00  0.00000000E+00
  0.00000000E+00  0.00000000E+00  0.00000000E+00
  0.00000000E+00  0.00000000E+00  0.00000000E+00
  0.00000000E+00  0.00000000E+00  0.00000000E+00
  0.00000000E+00  0.00000000E+00  0.00000000E+00
  0.00000000E+00  0.00000000E+00  0.00000000E+00
  0.00000000E+00  0.00000000E+00  0.00000000E+00
  0.00000000E+00  0.00000000E+00  0.00000000E+00
  0.00000000E+00  0.00000000E+00  0.00000000E+00
  0.00000000E+00  0.00000000E+00  0.00000000E+00
