pyclupan: 6-5-18
   1.00000000000000
     0.0000000000000000    2.0290385931467432   -2.0290385931467432
     0.0000000000000000   -2.0290385931467432   -2.0290385931467432
   -10.9531906880728691    0.0000000000000000    0.0000000000000000
   Cu   Au
     3     3
Direct
  0.0000000000000000  0.0000000000000000  0.6564721678260597
  0.0000000000000000  0.0000000000000000  0.3237545419380083
  0.5000000000000000  0.5000000000000000  0.1864569271765362
  0.0000000000000000  0.0000000000000000  0.0225845921272310
  0.5000000000000000  0.5000000000000000  0.8213468199569007
  0.5000000000000000  0.5000000000000000  0.4893849509752641

  0.00000000E+00  0.00000000E+00  0.00000000E+00
  0.00000000E+00  0.00000000E+00  0.00000000E+00
  0.00000000E+00  0.00000000E+00  0.00000000E+00
  0.00000000E+00  0.00000000E+00  0.00000000E+00
  0.00000000E+00  0.00000000E+00  0.00000000E+00
  0.00000000E+00  0.00000000E+00  0.00000000E+00
