pyclupan: 3-0-150
   1.00000000000000
     3.1527201152349247    0.0000000000000000    0.0000000000000000
    -1.5763600576174623    2.7303357108156483    0.0000000000000000
     0.0000000000000000    0.0000000000000000   15.0532815432135614
   Si   Al   C    N
     1     5     1     5
Direct
  0.6666666666666643  0.3333333333333357  0.8320685052414589
  0.3333333333333357  0.6666666666666643  0.0015329150899035
  0.3333333333333357  0.6666666666666643  0.3328795850736554
  0.3333333333333357  0.6666666666666643  0.6578025184893548
  0.6666666666666643  0.3333333333333357  0.1701390773434071
  0.6666666666666643  0.3333333333333357  0.4953544437100916
  0.3333333333333357  0.6666666666666643  0.1266959158241363
  0.3333333333333357  0.6666666666666643  0.4650100528067966
  0.3333333333333357  0.6666666666666643  0.7924029359645814
  0.6666666666666643  0.3333333333333357  0.3025662306222188
  0.6666666666666643  0.3333333333333357  0.6275521123195418
  0.6666666666666643  0.3333333333333357  0.9459957075148537

  0.00000000E+00  0.00000000E+00  0.00000000E+00
  0.00000000E+00  0.00000000E+00  0.00000000E+00
  0.00000000E+00  0.00000000E+00  0.00000000E+00
  0.00000000E+00  0.00000000E+00  0.00000000E+00
  0.00000000E+00  0.00000000E+00  0.00000000E+00
  0.00000000E+00  0.00000000E+00  0.00000000E+00
  0.00000000E+00  0.00000000E+00  0.00000000E+00
  0.00000000E+00  0.00000000E+00  0.00000000E+00
  0.00000000E+00  0.00000000E+00  0.00000000E+00
  0.00000000E+00  0.00000000E+00  0.00000000E+00
  0.00000000E+00  0.00000000E+00  0.00000000E+00
  0.00000000E+00  0.00000000E+00  0.00000000E+00
