pyclupan: 6-6-4
   1.00000000000000
     4.1529125266658138    0.0000000000000000    0.0000000000000000
    -2.0764562633329069   -4.1355624569231901   -2.0767331918590415
     0.0000000000000000    4.1335306131662266   -4.1493994961004672
   Ag   Au
     3     3
Direct
  0.9993321821283132  0.9986643642566477  0.5001831048291834
  0.3333333333333357  0.6666666666666643  0.6666666666666643
  0.6673344845383511  0.3346689690766880  0.8331502285041523
  0.0004175784538916  0.0008351569077760  0.9983240185048743
  0.3333333333333357  0.6666666666666643  0.1666666666666643
  0.6662490882127727  0.3324981764255597  0.3350093148284614

  0.00000000E+00  0.00000000E+00  0.00000000E+00
  0.00000000E+00  0.00000000E+00  0.00000000E+00
  0.00000000E+00  0.00000000E+00  0.00000000E+00
  0.00000000E+00  0.00000000E+00  0.00000000E+00
  0.00000000E+00  0.00000000E+00  0.00000000E+00
  0.00000000E+00  0.00000000E+00  0.00000000E+00
