pyclupan: 6-0-41
   1.00000000000000
     2.0177394755099209    0.0000000000000000    2.0177394755099209
     0.0000000000000000   -2.0177394755099209   -2.0177394755099209
     7.8773287715854075    7.8773287715854092   -7.8773287715854092
   Cu   Ag
     2     4
Direct
  0.3333333333333357  0.6666666666666643  0.6801831046386795
  0.6666666666666643  0.3333333333333357  0.8198168953613205
  0.0000000000000000  0.0000000000000000  0.9799700494772807
  0.3333333333333357  0.6666666666666643  0.1601172993344733
  0.6666666666666643  0.3333333333333357  0.3398827006655267
  0.0000000000000000  0.0000000000000000  0.5200299505227193

  0.00000000E+00  0.00000000E+00  0.00000000E+00
  0.00000000E+00  0.00000000E+00  0.00000000E+00
  0.00000000E+00  0.00000000E+00  0.00000000E+00
  0.00000000E+00  0.00000000E+00  0.00000000E+00
  0.00000000E+00  0.00000000E+00  0.00000000E+00
  0.00000000E+00  0.00000000E+00  0.00000000E+00
