pyclupan: 4-7-332
   1.00000000000000
     5.3840361968319694    0.0102741241147412   -0.0043260996081101
     0.0112843010851389    5.9426288907562199   -0.0469251514943227
    -0.0092052810596104   -2.6467391668415861    5.3344668006137361
   Si   Al   C    N
     4     4     4     4
Direct
  0.3341661271094267  0.5024737341448215  0.4986179547256384
  0.8259742077133723  0.7505798903566685  0.7493214228510539
  0.6598103819815790  0.7494276010333607  0.2505031464444443
  0.6683211595583600  0.2521305726114491  0.7448460572335946
  0.3399386851759658  0.9972634994580361  0.0026859262374614
  0.8328059509429124  0.2510398415988178  0.2456010675039266
  0.1724462405267744  0.5041150384182203  0.0055057185775169
  0.1651706756001730  0.9966763751382786  0.4981255588415650
  0.3448856627493839  0.8124220259741719  0.1961592332928817
  0.8240141962340175  0.5636118744511762  0.9339320842552823
  0.6588387294622322  0.5721212559886268  0.4471976485906808
  0.6771966299258736  0.0617069153742875  0.9156952054458287
  0.8228834695897405  0.0603057252631203  0.4422118571804745
  0.3432235573698392  0.3153763846345967  0.6793940322289771
  0.1759873991119107  0.3185270145715720  0.2077137602691792
  0.1543369269484316  0.7922222509827890  0.6824893263214946

  0.00000000E+00  0.00000000E+00  0.00000000E+00
  0.00000000E+00  0.00000000E+00  0.00000000E+00
  0.00000000E+00  0.00000000E+00  0.00000000E+00
  0.00000000E+00  0.00000000E+00  0.00000000E+00
  0.00000000E+00  0.00000000E+00  0.00000000E+00
  0.00000000E+00  0.00000000E+00  0.00000000E+00
  0.00000000E+00  0.00000000E+00  0.00000000E+00
  0.00000000E+00  0.00000000E+00  0.00000000E+00
  0.00000000E+00  0.00000000E+00  0.00000000E+00
  0.00000000E+00  0.00000000E+00  0.00000000E+00
  0.00000000E+00  0.00000000E+00  0.00000000E+00
  0.00000000E+00  0.00000000E+00  0.00000000E+00
  0.00000000E+00  0.00000000E+00  0.00000000E+00
  0.00000000E+00  0.00000000E+00  0.00000000E+00
  0.00000000E+00  0.00000000E+00  0.00000000E+00
  0.00000000E+00  0.00000000E+00  0.00000000E+00
