pyclupan: 3-1-6
1.0
   5.656854249492381 0.000000000000000 0.000000000000000
   0.000000000000000 16.970562748477139 0.000000000000000
   0.000000000000000 0.000000000000000 4.000000000000000
 Sr  Cu  O
 6  6  12
Direct
   0.000000000000000 0.666666666666667 0.000000000000000
   0.500000000000000 0.500000000000000 0.000000000000000
   0.000000000000000 0.333333333333333 0.000000000000000
   0.500000000000000 0.166666666666667 0.000000000000000
   0.000000000000000 0.000000000000000 0.000000000000000
   0.500000000000000 0.833333333333333 0.000000000000000
   0.500000000000000 0.666666666666667 0.500000000000000
   0.000000000000000 0.500000000000000 0.500000000000000
   0.500000000000000 0.333333333333333 0.500000000000000
   0.000000000000000 0.166666666666667 0.500000000000000
   0.500000000000000 0.000000000000000 0.500000000000000
   0.000000000000000 0.833333333333333 0.500000000000000
   0.750000000000000 0.583333333333333 0.500000000000000
   0.250000000000000 0.416666666666667 0.500000000000000
   0.500000000000000 0.666666666666667 0.000000000000000
   0.500000000000000 0.333333333333333 0.000000000000000
   0.250000000000000 0.583333333333333 0.500000000000000
   0.750000000000000 0.416666666666667 0.500000000000000
   0.250000000000000 0.083333333333333 0.500000000000000
   0.750000000000000 0.916666666666667 0.500000000000000
   0.000000000000000 0.166666666666667 0.000000000000000
   0.000000000000000 0.833333333333333 0.000000000000000
   0.750000000000000 0.083333333333333 0.500000000000000
   0.250000000000000 0.916666666666667 0.500000000000000
