pyclupan: 5-1-1
   1.00000000000000
     0.0000000000000000   -2.0559988027319251   -2.0559988027319251
    -4.1720228377692328    0.0000000000000000    0.0000000000000000
     2.0860114188846164    6.2216036042942022   -4.1656048015622771
   Ag   Au
     3     2
Direct
  0.6000000000000014  0.6000000000000014  0.2000000000000028
  0.8000765365168547  0.8000765365168547  0.6001530730337095
  0.3999234634831410  0.3999234634831410  0.7998469269662820
  0.9992882513441685  0.9992882513441685  0.9985765026883371
  0.2007117486558343  0.2007117486558343  0.4014234973116615

  0.00000000E+00  0.00000000E+00  0.00000000E+00
  0.00000000E+00  0.00000000E+00  0.00000000E+00
  0.00000000E+00  0.00000000E+00  0.00000000E+00
  0.00000000E+00  0.00000000E+00  0.00000000E+00
  0.00000000E+00  0.00000000E+00  0.00000000E+00
