pyclupan: 4-2-255
   1.00000000000000
    20.9015076903172172    0.0000000000000000    0.0924587108800919
     0.0000000000000000    3.1054534191092720    0.0000000000000000
    -1.4028031453286014    0.0000000000000000    5.2035230287742484
   Si   Al   C    N
    10     6    10     6
Direct
  0.0023469417623048  0.5000000000000000  0.8352240437392595
  0.7499877533326966  0.5000000000000000  0.5896524539854653
  0.8738706259760676  0.5000000000000000  0.0370117365577372
  0.6255618315296445  0.5000000000000000  0.7967924574191798
  0.8745431424363233  0.0000000000000000  0.5450695521389761
  0.5023469417623048  0.0000000000000000  0.8352240437392595
  0.2499877533326966  0.0000000000000000  0.5896524539854653
  0.3738706259760676  0.0000000000000000  0.0370117365577372
  0.1255618315296445  0.0000000000000000  0.7967924574191798
  0.3745431424363233  0.5000000000000000  0.5450695521389761
  0.9985313307030381  0.0000000000000000  0.3274081224135656
  0.7521969894821652  0.0000000000000000  0.0839690417640071
  0.6266056466485637  0.0000000000000000  0.2900703055329146
  0.4985313307030381  0.5000000000000000  0.3274081224135656
  0.2521969894821652  0.5000000000000000  0.0839690417640071
  0.1266056466485637  0.5000000000000000  0.2900703055329146
  0.8987173950595420  0.0000000000000000  0.2305318639426090
  0.6558829075408923  0.0000000000000000  0.9722921087265846
  0.9069643736696662  0.5000000000000000  0.7419183457795597
  0.5324925372490483  0.5000000000000000  0.7066988927317652
  0.7800251872836270  0.0000000000000000  0.4672741866808678
  0.3987173950595420  0.5000000000000000  0.2305318639426090
  0.1558829075408923  0.5000000000000000  0.9722921087265846
  0.4069643736696662  0.0000000000000000  0.7419183457795597
  0.0324925372490483  0.0000000000000000  0.7066988927317652
  0.2800251872836270  0.5000000000000000  0.4672741866808678
  0.6585592643117479  0.5000000000000000  0.5062156354096743
  0.7829074160452620  0.5000000000000000  0.9342537766418673
  0.5308066569694034  0.0000000000000000  0.1856174765359739
  0.1585592643117479  0.0000000000000000  0.5062156354096743
  0.2829074160452620  0.0000000000000000  0.9342537766418673
  0.0308066569694034  0.5000000000000000  0.1856174765359739

  0.00000000E+00  0.00000000E+00  0.00000000E+00
  0.00000000E+00  0.00000000E+00  0.00000000E+00
  0.00000000E+00  0.00000000E+00  0.00000000E+00
  0.00000000E+00  0.00000000E+00  0.00000000E+00
  0.00000000E+00  0.00000000E+00  0.00000000E+00
  0.00000000E+00  0.00000000E+00  0.00000000E+00
  0.00000000E+00  0.00000000E+00  0.00000000E+00
  0.00000000E+00  0.00000000E+00  0.00000000E+00
  0.00000000E+00  0.00000000E+00  0.00000000E+00
  0.00000000E+00  0.00000000E+00  0.00000000E+00
  0.00000000E+00  0.00000000E+00  0.00000000E+00
  0.00000000E+00  0.00000000E+00  0.00000000E+00
  0.00000000E+00  0.00000000E+00  0.00000000E+00
  0.00000000E+00  0.00000000E+00  0.00000000E+00
  0.00000000E+00  0.00000000E+00  0.00000000E+00
  0.00000000E+00  0.00000000E+00  0.00000000E+00
  0.00000000E+00  0.00000000E+00  0.00000000E+00
  0.00000000E+00  0.00000000E+00  0.00000000E+00
  0.00000000E+00  0.00000000E+00  0.00000000E+00
  0.00000000E+00  0.00000000E+00  0.00000000E+00
  0.00000000E+00  0.00000000E+00  0.00000000E+00
  0.00000000E+00  0.00000000E+00  0.00000000E+00
  0.00000000E+00  0.00000000E+00  0.00000000E+00
  0.00000000E+00  0.00000000E+00  0.00000000E+00
  0.00000000E+00  0.00000000E+00  0.00000000E+00
  0.00000000E+00  0.00000000E+00  0.00000000E+00
  0.00000000E+00  0.00000000E+00  0.00000000E+00
  0.00000000E+00  0.00000000E+00  0.00000000E+00
  0.00000000E+00  0.00000000E+00  0.00000000E+00
  0.00000000E+00  0.00000000E+00  0.00000000E+00
  0.00000000E+00  0.00000000E+00  0.00000000E+00
  0.00000000E+00  0.00000000E+00  0.00000000E+00
