pyclupan: 6-1-0
   1.00000000000000
     0.0000000000000000    2.0683352600243139    2.0683352600243139
     4.1543321684987085    0.0000000000000000    0.0000000000000000
    -0.0000000000000001    6.2159726841697367   -6.2159726841697367
   Ag   Au
     5     1
Direct
  0.5000000000000000  0.5000000000000000  0.1670877024768842
  0.0000000000000000  0.0000000000000000  0.3337468261435603
  0.5000000000000000  0.5000000000000000  0.5000000000000000
  0.0000000000000000  0.0000000000000000  0.6662531738564397
  0.5000000000000000  0.5000000000000000  0.8329122975231158
  0.0000000000000000  0.0000000000000000  0.0000000000000000

  0.00000000E+00  0.00000000E+00  0.00000000E+00
  0.00000000E+00  0.00000000E+00  0.00000000E+00
  0.00000000E+00  0.00000000E+00  0.00000000E+00
  0.00000000E+00  0.00000000E+00  0.00000000E+00
  0.00000000E+00  0.00000000E+00  0.00000000E+00
  0.00000000E+00  0.00000000E+00  0.00000000E+00
