pyclupan: 3-1-2
   1.00000000000000
     0.0000000000000000    2.0273802887149501    2.0273802887149501
     3.8293890983101626    0.0000000000000000    0.0000000000000000
    -1.9146945491550813    2.0671900917185764   -4.0945703804335265
   Cu   Ag
     1     2
Direct
  0.3333333333333357  0.3333333333333357  0.6666666666666643
  0.9938704586764899  0.9938704586764899  0.9877409173529799
  0.6727962079901744  0.6727962079901744  0.3455924159803558

  0.00000000E+00  0.00000000E+00  0.00000000E+00
  0.00000000E+00  0.00000000E+00  0.00000000E+00
  0.00000000E+00  0.00000000E+00  0.00000000E+00
