pyclupan: 6-5-3
   1.00000000000000
     0.0000000000000000    2.0582430294320830   -2.0582430294320830
     0.0000000000000000   -2.0582430294320830   -2.0582430294320830
   -12.6250751024851695    0.0000000000000000    0.0000000000000000
   Ag   Au
     3     3
Direct
  0.0000000000000000  0.0000000000000000  0.6664200936490658
  0.0000000000000000  0.0000000000000000  0.3331095864129381
  0.5000000000000000  0.5000000000000000  0.1671825362296175
  0.0000000000000000  0.0000000000000000  0.0014303629407948
  0.5000000000000000  0.5000000000000000  0.8320881839039487
  0.5000000000000000  0.5000000000000000  0.4997692368636422

  0.00000000E+00  0.00000000E+00  0.00000000E+00
  0.00000000E+00  0.00000000E+00  0.00000000E+00
  0.00000000E+00  0.00000000E+00  0.00000000E+00
  0.00000000E+00  0.00000000E+00  0.00000000E+00
  0.00000000E+00  0.00000000E+00  0.00000000E+00
  0.00000000E+00  0.00000000E+00  0.00000000E+00
