pyclupan: 6-7-6
   1.00000000000000
    -2.0694729396002023   -4.1460178916257266   -2.0694729396002027
    -4.1514616946068559    2.0747791455425735    2.0784483199511459
     2.0784483199511459    2.0747791455425730   -4.1514616946068559
   Ag   Au
     2     4
Direct
  0.0000000000000000  0.3333080047826442  0.6666919952173558
  0.5000000000000000  0.1666919952173558  0.8333080047826442
  0.0000000000000000  0.9998430390249951  0.0001569609750049
  0.5000000000000000  0.8331865889618726  0.1668134110381274
  0.0000000000000000  0.6668134110381274  0.3331865889618726
  0.5000000000000000  0.5001569609750049  0.4998430390249951

  0.00000000E+00  0.00000000E+00  0.00000000E+00
  0.00000000E+00  0.00000000E+00  0.00000000E+00
  0.00000000E+00  0.00000000E+00  0.00000000E+00
  0.00000000E+00  0.00000000E+00  0.00000000E+00
  0.00000000E+00  0.00000000E+00  0.00000000E+00
  0.00000000E+00  0.00000000E+00  0.00000000E+00
