pyclupan: 6-8-76
   1.00000000000000
    -2.0726925590785563    2.0726925590785563    0.0000000000000000
    -2.0756514106374180   -2.0756514106374180    4.1519602781781204
     6.2269881946307519    4.1542956355521961    2.0774936118505885
   Ag   Au
     2     4
Direct
  0.4996079108712337  0.4993887612304206  0.9992158217424674
  0.8337254224621020  0.1672779054362508  0.6674508449241969
  0.9991566271018186  0.9997648935116743  0.9983132542036373
  0.1666666666666643  0.8333333333333357  0.3333333333333357
  0.3341767062315171  0.6669017731549900  0.6683534124630270
  0.6666666666666643  0.3333333333333357  0.3333333333333357

  0.00000000E+00  0.00000000E+00  0.00000000E+00
  0.00000000E+00  0.00000000E+00  0.00000000E+00
  0.00000000E+00  0.00000000E+00  0.00000000E+00
  0.00000000E+00  0.00000000E+00  0.00000000E+00
  0.00000000E+00  0.00000000E+00  0.00000000E+00
  0.00000000E+00  0.00000000E+00  0.00000000E+00
