pyclupan: 2-1-0
1.0
   5.656854249492381 0.000000000000000 0.000000000000000
   0.000000000000000 5.656854249492381 0.000000000000000
   0.000000000000000 0.000000000000000 4.000000000000000
 Sr  Cu  O
 2  2  5
Direct
   0.000000000000000 0.500000000000000 0.000000000000000
   0.500000000000000 0.000000000000000 0.000000000000000
   0.500000000000000 0.500000000000000 0.500000000000000
   0.000000000000000 0.000000000000000 0.500000000000000
   0.750000000000000 0.750000000000000 0.500000000000000
   0.250000000000000 0.250000000000000 0.500000000000000
   0.000000000000000 0.000000000000000 0.000000000000000
   0.750000000000000 0.250000000000000 0.500000000000000
   0.250000000000000 0.750000000000000 0.500000000000000
