pyclupan: 6-7-1
   1.00000000000000
    -2.0697968130048059   -4.1449572000411985   -2.0697968130048054
    -4.1463489661115673    2.0734231174538857    2.0746631490344010
     2.0746631490344010    2.0734231174538857   -4.1463489661115673
   Ag   Au
     4     2
Direct
  0.5000000000000000  0.8333333333333357  0.1666666666666643
  0.5000000000000000  0.5001655660011153  0.4998344339988847
  0.0000000000000000  0.3333333333333357  0.6666666666666643
  0.5000000000000000  0.1665011006655490  0.8334988993344510
  0.0000000000000000  0.9997981007276309  0.0002018992723691
  0.0000000000000000  0.6668685659390334  0.3331314340609666

  0.00000000E+00  0.00000000E+00  0.00000000E+00
  0.00000000E+00  0.00000000E+00  0.00000000E+00
  0.00000000E+00  0.00000000E+00  0.00000000E+00
  0.00000000E+00  0.00000000E+00  0.00000000E+00
  0.00000000E+00  0.00000000E+00  0.00000000E+00
  0.00000000E+00  0.00000000E+00  0.00000000E+00
