pyclupan: 6-5-5
   1.00000000000000
     0.0000000000000000    2.0585927434021158   -2.0585927434021158
     0.0000000000000000   -2.0585927434021158   -2.0585927434021158
   -12.6293737956253533    0.0000000000000000    0.0000000000000000
   Ag   Au
     2     4
Direct
  0.5000000000000000  0.5000000000000000  0.4998813959974910
  0.5000000000000000  0.5000000000000000  0.1667852706691733
  0.0000000000000000  0.0000000000000000  0.0013803327572717
  0.5000000000000000  0.5000000000000000  0.8333333333333357
  0.0000000000000000  0.0000000000000000  0.6652863339093926
  0.0000000000000000  0.0000000000000000  0.3333333333333357

  0.00000000E+00  0.00000000E+00  0.00000000E+00
  0.00000000E+00  0.00000000E+00  0.00000000E+00
  0.00000000E+00  0.00000000E+00  0.00000000E+00
  0.00000000E+00  0.00000000E+00  0.00000000E+00
  0.00000000E+00  0.00000000E+00  0.00000000E+00
  0.00000000E+00  0.00000000E+00  0.00000000E+00
