pyclupan: 5-3-20
   1.00000000000000
     0.0000000000000000   -2.0509041707709077    2.0509041707709077
     0.0000000000000000   -2.0509041707709077   -2.0509041707709077
     9.8963046918856215    2.0509041707709077    0.0000000000000000
   Cu   Ag
     1     4
Direct
  0.3999999999999986  0.3999999999999986  0.7999999999999972
  0.9902146667284129  0.9902146667284129  0.9804293334568186
  0.5967656628236639  0.5967656628236639  0.1935313256473279
  0.2032343371763403  0.2032343371763403  0.4064686743526735
  0.8097853332715843  0.8097853332715843  0.6195706665431828

  0.00000000E+00  0.00000000E+00  0.00000000E+00
  0.00000000E+00  0.00000000E+00  0.00000000E+00
  0.00000000E+00  0.00000000E+00  0.00000000E+00
  0.00000000E+00  0.00000000E+00  0.00000000E+00
  0.00000000E+00  0.00000000E+00  0.00000000E+00
