pyclupan: 4-0-756
   1.00000000000000
     3.2029735442357330    0.0000000000000000    0.0000000000000000
    -1.6014867721178665    2.7738564569576241    0.0000000000000000
     0.0000000000000000    0.0000000000000000   18.8414876929190704
   Si   Al   C    N
     5     3     5     3
Direct
  0.3333333333333357  0.6666666666666643  0.7338578650071881
  0.6666666666666643  0.3333333333333357  0.1262156322330767
  0.6666666666666643  0.3333333333333357  0.3449948629280613
  0.6666666666666643  0.3333333333333357  0.5985531287183221
  0.6666666666666643  0.3333333333333357  0.8591905825523583
  0.3333333333333357  0.6666666666666643  0.9892026960680482
  0.3333333333333357  0.6666666666666643  0.2403979613936684
  0.3333333333333357  0.6666666666666643  0.4777685673923102
  0.3333333333333357  0.6666666666666643  0.0965668327558262
  0.3333333333333357  0.6666666666666643  0.3578121253605104
  0.3333333333333357  0.6666666666666643  0.6353382472028741
  0.6666666666666643  0.3333333333333357  0.2280487565878744
  0.6666666666666643  0.3333333333333357  0.5015328471553602
  0.3333333333333357  0.6666666666666643  0.8468844783926244
  0.6666666666666643  0.3333333333333357  0.7573351353901501
  0.6666666666666643  0.3333333333333357  0.9563002808617043

  0.00000000E+00  0.00000000E+00  0.00000000E+00
  0.00000000E+00  0.00000000E+00  0.00000000E+00
  0.00000000E+00  0.00000000E+00  0.00000000E+00
  0.00000000E+00  0.00000000E+00  0.00000000E+00
  0.00000000E+00  0.00000000E+00  0.00000000E+00
  0.00000000E+00  0.00000000E+00  0.00000000E+00
  0.00000000E+00  0.00000000E+00  0.00000000E+00
  0.00000000E+00  0.00000000E+00  0.00000000E+00
  0.00000000E+00  0.00000000E+00  0.00000000E+00
  0.00000000E+00  0.00000000E+00  0.00000000E+00
  0.00000000E+00  0.00000000E+00  0.00000000E+00
  0.00000000E+00  0.00000000E+00  0.00000000E+00
  0.00000000E+00  0.00000000E+00  0.00000000E+00
  0.00000000E+00  0.00000000E+00  0.00000000E+00
  0.00000000E+00  0.00000000E+00  0.00000000E+00
  0.00000000E+00  0.00000000E+00  0.00000000E+00
