pyclupan: 6-3-22
   1.00000000000000
     0.0000000000000000   -2.0352406909447516   -2.0352406909447516
    -4.0818099319026855    2.0351263527694727   -2.0351263527694727
     3.9018276377262437    3.8904431929628531   -3.8904431929628522
   Cu   Ag   Au
     2     1     3
Direct
  0.0000000000000000  0.6666225513040303  0.6655018320063419
  0.5000000000000000  0.1662535150910784  0.6679422808490045
  0.0000000000000000  0.3333128191813870  0.3469209279242023
  0.0000000000000000  0.9997231715731942  0.9842480778067895
  0.5000000000000000  0.8336222436407397  0.3551771228520408
  0.5000000000000000  0.5004656992095704  0.9802097585616210

  0.00000000E+00  0.00000000E+00  0.00000000E+00
  0.00000000E+00  0.00000000E+00  0.00000000E+00
  0.00000000E+00  0.00000000E+00  0.00000000E+00
  0.00000000E+00  0.00000000E+00  0.00000000E+00
  0.00000000E+00  0.00000000E+00  0.00000000E+00
  0.00000000E+00  0.00000000E+00  0.00000000E+00
