pyclupan: 6-5-1
   1.00000000000000
     0.0000000000000000    1.9279333613389329   -1.9279333613389329
     0.0000000000000000   -1.9279333613389329   -1.9279333613389329
   -10.5648898531915059    0.0000000000000000    0.0000000000000000
   Cu   Au
     5     1
Direct
  0.5000000000000000  0.5000000000000000  0.8123066631589566
  0.0000000000000000  0.0000000000000000  0.6554986765656707
  0.5000000000000000  0.5000000000000000  0.5000000000000000
  0.0000000000000000  0.0000000000000000  0.3445013234343293
  0.5000000000000000  0.5000000000000000  0.1876933368410434
  0.0000000000000000  0.0000000000000000  0.0000000000000000

  0.00000000E+00  0.00000000E+00  0.00000000E+00
  0.00000000E+00  0.00000000E+00  0.00000000E+00
  0.00000000E+00  0.00000000E+00  0.00000000E+00
  0.00000000E+00  0.00000000E+00  0.00000000E+00
  0.00000000E+00  0.00000000E+00  0.00000000E+00
  0.00000000E+00  0.00000000E+00  0.00000000E+00
