pyclupan: 4-8-11
1.0
   6.928203230275509 0.000000000000000 0.000000000000000
   -2.309401076758503 6.531972647421807 0.000000000000000
   -2.309401076758503 -3.265986323710905 5.656854249492379
 Sr  Cu  O
 4  4  8
Direct
   0.000000000000000 0.000000000000000 0.000000000000000
   0.500000000000000 0.500000000000000 0.000000000000000
   0.500000000000000 0.000000000000000 0.500000000000000
   0.000000000000000 0.500000000000000 0.500000000000000
   0.500000000000000 0.000000000000000 0.000000000000000
   0.000000000000000 0.500000000000000 0.000000000000000
   0.000000000000000 0.000000000000000 0.500000000000000
   0.500000000000000 0.500000000000000 0.500000000000000
   0.750000000000000 0.000000000000000 0.250000000000000
   0.250000000000000 0.500000000000000 0.250000000000000
   0.000000000000000 0.750000000000000 0.250000000000000
   0.000000000000000 0.250000000000000 0.750000000000000
   0.500000000000000 0.750000000000000 0.750000000000000
   0.750000000000000 0.250000000000000 0.000000000000000
   0.750000000000000 0.750000000000000 0.500000000000000
   0.250000000000000 0.250000000000000 0.500000000000000
