pyclupan: 3-1-285
   1.00000000000000
    11.4670375449013573    0.0000000000000000   -0.0644088208569917
     0.0000000000000000    3.1229046660067845    0.0000000000000000
    -1.8772435445562872    0.0000000000000000    7.1651206325481578
   Si   Al   C    N
     4     8     4     8
Direct
  0.4424240889125883  0.5000000000000000  0.3873743790447506
  0.1131976961148879  0.5000000000000000  0.7292713485396902
  0.9424240889125883  0.0000000000000000  0.3873743790447506
  0.6131976961148879  0.0000000000000000  0.7292713485396902
  0.3895125514735511  0.5000000000000000  0.7756323458189911
  0.0585077933510121  0.5000000000000000  0.1124564663001948
  0.2254112444013288  0.0000000000000000  0.4382978980254180
  0.2759376810792062  0.0000000000000000  0.0538097396138895
  0.8895125514735511  0.0000000000000000  0.7756323458189911
  0.5585077933510121  0.0000000000000000  0.1124564663001948
  0.7254112444013288  0.5000000000000000  0.4382978980254180
  0.7759376810792062  0.5000000000000000  0.0538097396138895
  0.2570174853307492  0.5000000000000000  0.8910277242132381
  0.4326044849560660  0.0000000000000000  0.2552733979209805
  0.7570174853307492  0.0000000000000000  0.8910277242132381
  0.9326044849560660  0.5000000000000000  0.2552733979209805
  0.0900405836841003  0.0000000000000000  0.5748665302137184
  0.1506351217100459  0.0000000000000000  0.1838409752016688
  0.3230468038596968  0.5000000000000000  0.5106503980707018
  0.4916644651267816  0.0000000000000000  0.8374987970367584
  0.5900405836841003  0.5000000000000000  0.5748665302137184
  0.6506351217100459  0.5000000000000000  0.1838409752016688
  0.8230468038596968  0.0000000000000000  0.5106503980707018
  0.9916644651267816  0.5000000000000000  0.8374987970367584

  0.00000000E+00  0.00000000E+00  0.00000000E+00
  0.00000000E+00  0.00000000E+00  0.00000000E+00
  0.00000000E+00  0.00000000E+00  0.00000000E+00
  0.00000000E+00  0.00000000E+00  0.00000000E+00
  0.00000000E+00  0.00000000E+00  0.00000000E+00
  0.00000000E+00  0.00000000E+00  0.00000000E+00
  0.00000000E+00  0.00000000E+00  0.00000000E+00
  0.00000000E+00  0.00000000E+00  0.00000000E+00
  0.00000000E+00  0.00000000E+00  0.00000000E+00
  0.00000000E+00  0.00000000E+00  0.00000000E+00
  0.00000000E+00  0.00000000E+00  0.00000000E+00
  0.00000000E+00  0.00000000E+00  0.00000000E+00
  0.00000000E+00  0.00000000E+00  0.00000000E+00
  0.00000000E+00  0.00000000E+00  0.00000000E+00
  0.00000000E+00  0.00000000E+00  0.00000000E+00
  0.00000000E+00  0.00000000E+00  0.00000000E+00
  0.00000000E+00  0.00000000E+00  0.00000000E+00
  0.00000000E+00  0.00000000E+00  0.00000000E+00
  0.00000000E+00  0.00000000E+00  0.00000000E+00
  0.00000000E+00  0.00000000E+00  0.00000000E+00
  0.00000000E+00  0.00000000E+00  0.00000000E+00
  0.00000000E+00  0.00000000E+00  0.00000000E+00
  0.00000000E+00  0.00000000E+00  0.00000000E+00
  0.00000000E+00  0.00000000E+00  0.00000000E+00
