pyclupan: 4-6-39
1.0
   4.000000000000000 0.000000000000000 0.000000000000000
   0.000000000000000 8.000000000000000 0.000000000000000
   0.000000000000000 0.000000000000000 8.000000000000000
 Sr  Cu  O
 4  4  9
Direct
   0.000000000000000 0.750000000000000 0.000000000000000
   0.000000000000000 0.250000000000000 0.000000000000000
   0.000000000000000 0.750000000000000 0.500000000000000
   0.000000000000000 0.250000000000000 0.500000000000000
   0.500000000000000 0.000000000000000 0.250000000000000
   0.500000000000000 0.500000000000000 0.250000000000000
   0.500000000000000 0.000000000000000 0.750000000000000
   0.500000000000000 0.500000000000000 0.750000000000000
   0.500000000000000 0.000000000000000 0.500000000000000
   0.500000000000000 0.500000000000000 0.500000000000000
   0.000000000000000 0.500000000000000 0.250000000000000
   0.000000000000000 0.000000000000000 0.750000000000000
   0.000000000000000 0.500000000000000 0.750000000000000
   0.500000000000000 0.750000000000000 0.250000000000000
   0.500000000000000 0.250000000000000 0.250000000000000
   0.500000000000000 0.750000000000000 0.750000000000000
   0.500000000000000 0.250000000000000 0.750000000000000
