pyclupan: 4-2-2
   1.00000000000000
     0.0000000000000000   -2.0685400098457096   -2.0685400098457096
    -2.0890725250015061   -2.0845442870376920    4.1530842968834021
    -4.1561100910036481    2.0718652076049593   -2.0718652076049593
   Ag   Au
     1     3
Direct
  0.7500000000000000  0.5000000000000000  0.2500000000000000
  0.9996408553970966  0.9992817107941931  0.0008522854399686
  0.2500000000000000  0.5000000000000000  0.7500000000000000
  0.5003591446029034  0.0007182892058069  0.4991477145600314

  0.00000000E+00  0.00000000E+00  0.00000000E+00
  0.00000000E+00  0.00000000E+00  0.00000000E+00
  0.00000000E+00  0.00000000E+00  0.00000000E+00
  0.00000000E+00  0.00000000E+00  0.00000000E+00
