pyclupan: 5-4-3
   1.00000000000000
    -4.1535858008975106    0.0000000000000000    0.0000000000000000
    -2.0767929004487553   -4.1532112520265416   -2.0766056255057626
     2.0767929004487553   -2.0766056255057626    4.1532112520265416
   Ag   Au
     1     4
Direct
  0.3999999999999986  0.3999999999999986  0.2000000000000028
  0.0001144824319113  0.0001328375273388  0.0003618023911685
  0.6002473199592586  0.5996381976088330  0.8001328375273360
  0.1997526800407456  0.2003618023911713  0.5998671624726626
  0.7998855175680859  0.7998671624726583  0.3996381976088301

  0.00000000E+00  0.00000000E+00  0.00000000E+00
  0.00000000E+00  0.00000000E+00  0.00000000E+00
  0.00000000E+00  0.00000000E+00  0.00000000E+00
  0.00000000E+00  0.00000000E+00  0.00000000E+00
  0.00000000E+00  0.00000000E+00  0.00000000E+00
