pyclupan: 6-6-63
   1.00000000000000
     4.0469143144752806    0.0000000000000000    0.0000000000000000
    -2.0234571572376403   -4.0892547906465966   -2.0420180705411433
     0.0000000000000000    4.0968842044347582   -4.0992780018866029
   Cu   Ag   Au
     1     3     2
Direct
  0.6700561588024811  0.3401123176049765  0.8419076373019578
  0.6653087620777640  0.3306175241555351  0.3359458587473583
  0.0042683868205486  0.0085367736410973  0.5056680740697104
  0.3336921365671657  0.6673842731343242  0.6678348496375435
  0.9995713489302887  0.9991426978605702  0.9916825554854540
  0.3271032068017519  0.6542064136034966  0.1569610247579831

  0.00000000E+00  0.00000000E+00  0.00000000E+00
  0.00000000E+00  0.00000000E+00  0.00000000E+00
  0.00000000E+00  0.00000000E+00  0.00000000E+00
  0.00000000E+00  0.00000000E+00  0.00000000E+00
  0.00000000E+00  0.00000000E+00  0.00000000E+00
  0.00000000E+00  0.00000000E+00  0.00000000E+00
