pyclupan: 6-0-6
   1.00000000000000
     2.0699632038318510    0.0000000000000000    2.0699632038318510
     0.0000000000000000   -2.0699632038318510   -2.0699632038318510
     8.3512417184625143    8.3512417184625143   -8.3512417184625143
   Ag   Au
     2     4
Direct
  0.3333333333333357  0.6666666666666643  0.6677099068003685
  0.6666666666666643  0.3333333333333357  0.8322900931996315
  0.0000000000000000  0.0000000000000000  0.9983356841453102
  0.3333333333333357  0.6666666666666643  0.1666192373484350
  0.6666666666666643  0.3333333333333357  0.3333807626515650
  0.0000000000000000  0.0000000000000000  0.5016643158546898

  0.00000000E+00  0.00000000E+00  0.00000000E+00
  0.00000000E+00  0.00000000E+00  0.00000000E+00
  0.00000000E+00  0.00000000E+00  0.00000000E+00
  0.00000000E+00  0.00000000E+00  0.00000000E+00
  0.00000000E+00  0.00000000E+00  0.00000000E+00
  0.00000000E+00  0.00000000E+00  0.00000000E+00
