pyclupan: 6-6-55
   1.00000000000000
     4.0665604283319725    0.0000000000000000    0.0000000000000000
    -2.0332802141659863   -4.1184862659822210   -2.0378675681004141
     0.0000000000000000    4.1001491718837650   -4.0394038927374289
   Cu   Ag   Au
     1     3     2
Direct
  0.6701699317617198  0.3403398635234325  0.8385579752789667
  0.9991952387714562  0.9983904775429195  0.9957522184443519
  0.0043956807608510  0.0087913615217090  0.5081281635751154
  0.3347062143073742  0.6694124286147414  0.6675010055981687
  0.3260517027723111  0.6521034055446009  0.1529209770261559
  0.6654812316262948  0.3309624632525967  0.3371396600772414

  0.00000000E+00  0.00000000E+00  0.00000000E+00
  0.00000000E+00  0.00000000E+00  0.00000000E+00
  0.00000000E+00  0.00000000E+00  0.00000000E+00
  0.00000000E+00  0.00000000E+00  0.00000000E+00
  0.00000000E+00  0.00000000E+00  0.00000000E+00
  0.00000000E+00  0.00000000E+00  0.00000000E+00
