pyclupan: 3-2-39
   1.00000000000000
     5.4345387146426241   -0.0017286036944266    0.0011823701713334
     2.7157675250791833    4.7025752718908125   -0.0153873813025197
     2.7178359317255305    1.5497105336260586    5.0166387452830925
   Si   Al   C    N
     3     3     3     3
Direct
  0.0059410019796786  0.6810969349490534  0.9809858839649976
  0.4934396745292347  0.8329143570161008  0.5043731865477667
  0.1610983209573646  0.4957983470660920  0.5191233873162986
  0.6635543170090870  0.3366512134138446  0.9918733381123772
  0.3451348846733779  0.9975223858687130  0.9867777872523291
  0.8343278132347365  0.1632624212433598  0.5017507963067231
  0.7210486842943382  0.0266894767020744  0.8822967164632587
  0.3673897507490409  0.7102389487800878  0.8620953899079566
  0.0386177090042992  0.3869021586748076  0.8830071116031704
  0.5096884101996366  0.2076979237138232  0.3880545281861885
  0.2288244020350305  0.8453966886580915  0.3804201320962548
  0.8809350313341682  0.5658291439139660  0.3692417422426786

  0.00000000E+00  0.00000000E+00  0.00000000E+00
  0.00000000E+00  0.00000000E+00  0.00000000E+00
  0.00000000E+00  0.00000000E+00  0.00000000E+00
  0.00000000E+00  0.00000000E+00  0.00000000E+00
  0.00000000E+00  0.00000000E+00  0.00000000E+00
  0.00000000E+00  0.00000000E+00  0.00000000E+00
  0.00000000E+00  0.00000000E+00  0.00000000E+00
  0.00000000E+00  0.00000000E+00  0.00000000E+00
  0.00000000E+00  0.00000000E+00  0.00000000E+00
  0.00000000E+00  0.00000000E+00  0.00000000E+00
  0.00000000E+00  0.00000000E+00  0.00000000E+00
  0.00000000E+00  0.00000000E+00  0.00000000E+00
