pyclupan: 4-0-425
   1.00000000000000
     3.2076194864469962    0.0000000000000000    0.0000000000000000
    -1.6038097432234981    2.7778799609370939    0.0000000000000000
     0.0000000000000000    0.0000000000000000   18.7891869781201848
   Si   Al   C    N
     4     4     4     4
Direct
  0.3333333333333357  0.6666666666666643  0.4709095959843523
  0.3333333333333357  0.6666666666666643  0.7310303020912627
  0.6666666666666643  0.3333333333333357  0.1332845099424205
  0.6666666666666643  0.3333333333333357  0.6065525871020867
  0.3333333333333357  0.6666666666666643  0.9961194277969270
  0.3333333333333357  0.6666666666666643  0.2489542344609390
  0.6666666666666643  0.3333333333333357  0.3498697613485078
  0.6666666666666643  0.3333333333333357  0.8616920889085193
  0.3333333333333357  0.6666666666666643  0.1026975153776064
  0.3333333333333357  0.6666666666666643  0.3732946033587510
  0.6666666666666643  0.3333333333333357  0.2344988730389233
  0.6666666666666643  0.3333333333333357  0.5070069944651294
  0.3333333333333357  0.6666666666666643  0.6284758284347376
  0.3333333333333357  0.6666666666666643  0.8275509514657244
  0.6666666666666643  0.3333333333333357  0.7172047025858532
  0.6666666666666643  0.3333333333333357  0.9608580236382736

  0.00000000E+00  0.00000000E+00  0.00000000E+00
  0.00000000E+00  0.00000000E+00  0.00000000E+00
  0.00000000E+00  0.00000000E+00  0.00000000E+00
  0.00000000E+00  0.00000000E+00  0.00000000E+00
  0.00000000E+00  0.00000000E+00  0.00000000E+00
  0.00000000E+00  0.00000000E+00  0.00000000E+00
  0.00000000E+00  0.00000000E+00  0.00000000E+00
  0.00000000E+00  0.00000000E+00  0.00000000E+00
  0.00000000E+00  0.00000000E+00  0.00000000E+00
  0.00000000E+00  0.00000000E+00  0.00000000E+00
  0.00000000E+00  0.00000000E+00  0.00000000E+00
  0.00000000E+00  0.00000000E+00  0.00000000E+00
  0.00000000E+00  0.00000000E+00  0.00000000E+00
  0.00000000E+00  0.00000000E+00  0.00000000E+00
  0.00000000E+00  0.00000000E+00  0.00000000E+00
  0.00000000E+00  0.00000000E+00  0.00000000E+00
