pyclupan: 3-2-1
   1.00000000000000
     0.0000000000000000    2.0552635409697797    2.0552635409697797
     0.0000000000000000    2.0552635409697797   -2.0552635409697797
    -6.3387942438990947   -2.0552635409697797    0.0000000000000000
   Ag   Au
     1     2
Direct
  0.6666666666666643  0.6666666666666643  0.3333333333333357
  0.0011825458289394  0.0011825458289394  0.0023650916578788
  0.3321507875043963  0.3321507875043963  0.6643015750087855

  0.00000000E+00  0.00000000E+00  0.00000000E+00
  0.00000000E+00  0.00000000E+00  0.00000000E+00
  0.00000000E+00  0.00000000E+00  0.00000000E+00
