pyclupan: 1-0-3
   1.00000000000000
     3.1303716329196978    0.0000000000000000    0.0000000000000000
    -1.5651858164598489    2.7109813573946342    0.0000000000000000
     0.0000000000000000    0.0000000000000000    5.0173288837054759
   Al   N
     2     2
Direct
  0.3333333333333357  0.6666666666666643  0.9968327191615671
  0.6666666666666643  0.3333333333333357  0.4968327191615671
  0.3333333333333357  0.6666666666666643  0.3781672808384329
  0.6666666666666643  0.3333333333333357  0.8781672808384329

  0.00000000E+00  0.00000000E+00  0.00000000E+00
  0.00000000E+00  0.00000000E+00  0.00000000E+00
  0.00000000E+00  0.00000000E+00  0.00000000E+00
  0.00000000E+00  0.00000000E+00  0.00000000E+00
