pyclupan: 2-2-1
1.0
   5.656854249492381 0.000000000000000 0.000000000000000
   0.000000000000000 8.000000000000000 0.000000000000000
   0.000000000000000 0.000000000000000 5.656854249492381
 Sr  Cu  O
 4  4  8
Direct
   0.000000000000000 0.500000000000000 0.000000000000000
   0.500000000000000 0.500000000000000 0.500000000000000
   0.500000000000000 0.000000000000000 0.500000000000000
   0.000000000000000 0.000000000000000 0.000000000000000
   0.500000000000000 0.250000000000000 0.000000000000000
   0.000000000000000 0.250000000000000 0.500000000000000
   0.000000000000000 0.750000000000000 0.500000000000000
   0.500000000000000 0.750000000000000 0.000000000000000
   0.250000000000000 0.250000000000000 0.250000000000000
   0.750000000000000 0.250000000000000 0.250000000000000
   0.000000000000000 0.500000000000000 0.500000000000000
   0.500000000000000 0.500000000000000 0.000000000000000
   0.750000000000000 0.750000000000000 0.750000000000000
   0.250000000000000 0.750000000000000 0.750000000000000
   0.500000000000000 0.000000000000000 0.000000000000000
   0.000000000000000 0.000000000000000 0.500000000000000
