pyclupan: 6-2-5
   1.00000000000000
     0.0000000000000000    1.9805283728215815    1.9805283728215812
     0.0773711196020547   -3.8200221766145934    3.8200221766145930
     5.6153029271229054   -0.0943323922218957   -1.8861959805996864
   Cu   Au
     4     2
Direct
  0.6666666666666643  0.8333333333333357  0.3333333333333357
  0.0070834544817799  0.5072209686808691  0.0141669089635599
  0.6666666666666643  0.3333333333333357  0.3333333333333357
  0.3262498788515558  0.1594456979857952  0.6524997577031044
  0.0052113681712527  0.0173286282718692  0.0104227363425053
  0.3281219651620830  0.6493380383947951  0.6562439303241590

  0.00000000E+00  0.00000000E+00  0.00000000E+00
  0.00000000E+00  0.00000000E+00  0.00000000E+00
  0.00000000E+00  0.00000000E+00  0.00000000E+00
  0.00000000E+00  0.00000000E+00  0.00000000E+00
  0.00000000E+00  0.00000000E+00  0.00000000E+00
  0.00000000E+00  0.00000000E+00  0.00000000E+00
