pyclupan: 6-3-28
   1.00000000000000
     0.0000000000000000   -2.0108242366131859   -2.0108242366131868
    -3.6171262131383561    2.0305122796768180   -2.0305122796768185
     3.6831648768852001    4.1407820414780305   -4.1407820414780305
   Cu   Au
     3     3
Direct
  0.5000000000000000  0.5336926022532751  0.0237695632554917
  0.0000000000000000  0.3333333333333357  0.3333333333333357
  0.5000000000000000  0.1329740644133892  0.6428971034111655
  0.0000000000000000  0.0509206680108818  0.9778918715298346
  0.5000000000000000  0.8333333333333357  0.3333333333333357
  0.0000000000000000  0.6157459986557825  0.6887747951368297

  0.00000000E+00  0.00000000E+00  0.00000000E+00
  0.00000000E+00  0.00000000E+00  0.00000000E+00
  0.00000000E+00  0.00000000E+00  0.00000000E+00
  0.00000000E+00  0.00000000E+00  0.00000000E+00
  0.00000000E+00  0.00000000E+00  0.00000000E+00
  0.00000000E+00  0.00000000E+00  0.00000000E+00
