pyclupan: 4-8-766
   1.00000000000000
     3.1054411696751529    0.0000000000000000    0.0000000000000000
     0.0000000000000000   10.7696795076476199    0.0000000000000000
     0.0000000000000000    0.0000000000000000    5.0605217727814997
   Si   Al   C    N
     4     4     4     4
Direct
  0.0000000000000000  0.4187732283779795  0.0123932173697980
  0.5000000000000000  0.6652550437343479  0.0056284768534027
  0.5000000000000000  0.3347449562656521  0.5056284768534027
  0.0000000000000000  0.5812267716220205  0.5123932173697980
  0.0000000000000000  0.9140179349159112  0.9895776659674382
  0.5000000000000000  0.1677083527266134  0.9970114245995134
  0.5000000000000000  0.8322916472733866  0.4970114245995134
  0.0000000000000000  0.0859820650840888  0.4895776659674382
  0.0000000000000000  0.4130345364889578  0.6352672944350530
  0.5000000000000000  0.6604926490063150  0.6359142296406333
  0.5000000000000000  0.3395073509936779  0.1359142296406333
  0.0000000000000000  0.5869654635110422  0.1352672944350530
  0.0000000000000000  0.9204472090383291  0.6119787411407458
  0.5000000000000000  0.1726486010590662  0.6122289499934226
  0.5000000000000000  0.8273513989409338  0.1122289499934226
  0.0000000000000000  0.0795527909616709  0.1119787411407458

  0.00000000E+00  0.00000000E+00  0.00000000E+00
  0.00000000E+00  0.00000000E+00  0.00000000E+00
  0.00000000E+00  0.00000000E+00  0.00000000E+00
  0.00000000E+00  0.00000000E+00  0.00000000E+00
  0.00000000E+00  0.00000000E+00  0.00000000E+00
  0.00000000E+00  0.00000000E+00  0.00000000E+00
  0.00000000E+00  0.00000000E+00  0.00000000E+00
  0.00000000E+00  0.00000000E+00  0.00000000E+00
  0.00000000E+00  0.00000000E+00  0.00000000E+00
  0.00000000E+00  0.00000000E+00  0.00000000E+00
  0.00000000E+00  0.00000000E+00  0.00000000E+00
  0.00000000E+00  0.00000000E+00  0.00000000E+00
  0.00000000E+00  0.00000000E+00  0.00000000E+00
  0.00000000E+00  0.00000000E+00  0.00000000E+00
  0.00000000E+00  0.00000000E+00  0.00000000E+00
  0.00000000E+00  0.00000000E+00  0.00000000E+00
