pyclupan: 3-3-103
   1.00000000000000
    16.2065787795177378    0.0000000000000000    0.0690775901608804
     0.0000000000000000    3.1117260295214613    0.0000000000000000
     0.0215715805907390    0.0000000000000000    5.0630926473803717
   Si   Al   C    N
     6     6     6     6
Direct
  0.0552646202069482  0.5000000000000000  0.0074884146246390
  0.2802991275960522  0.5000000000000000  0.4918262932489554
  0.1091725369426868  0.0000000000000000  0.5033231034015273
  0.5552646202069482  0.0000000000000000  0.0074884146246390
  0.7802991275960522  0.0000000000000000  0.4918262932489554
  0.6091725369426868  0.5000000000000000  0.5033231034015273
  0.3914673866322786  0.5000000000000000  0.0001719190917129
  0.2211826770686898  0.0000000000000000  0.0028566085962325
  0.4438161366114528  0.0000000000000000  0.5005618643275582
  0.8914673866322786  0.0000000000000000  0.0001719190917129
  0.7211826770686898  0.5000000000000000  0.0028566085962325
  0.9438161366114528  0.5000000000000000  0.5005618643275582
  0.3813941280159909  0.5000000000000000  0.6161542583382840
  0.0624882550295069  0.5000000000000000  0.6372674381807499
  0.1065827264992336  0.0000000000000000  0.1343290863790259
  0.8813941280159909  0.0000000000000000  0.6161542583382840
  0.5624882550295069  0.0000000000000000  0.6372674381807499
  0.6065827264992336  0.5000000000000000  0.1343290863790259
  0.2219779117776781  0.0000000000000000  0.6041305908627450
  0.4492846891189686  0.0000000000000000  0.1156262295903616
  0.2770698045005346  0.5000000000000000  0.1362641933582154
  0.7219779117776781  0.5000000000000000  0.6041305908627450
  0.9492846891189686  0.5000000000000000  0.1156262295903616
  0.7770698045005346  0.0000000000000000  0.1362641933582154

  0.00000000E+00  0.00000000E+00  0.00000000E+00
  0.00000000E+00  0.00000000E+00  0.00000000E+00
  0.00000000E+00  0.00000000E+00  0.00000000E+00
  0.00000000E+00  0.00000000E+00  0.00000000E+00
  0.00000000E+00  0.00000000E+00  0.00000000E+00
  0.00000000E+00  0.00000000E+00  0.00000000E+00
  0.00000000E+00  0.00000000E+00  0.00000000E+00
  0.00000000E+00  0.00000000E+00  0.00000000E+00
  0.00000000E+00  0.00000000E+00  0.00000000E+00
  0.00000000E+00  0.00000000E+00  0.00000000E+00
  0.00000000E+00  0.00000000E+00  0.00000000E+00
  0.00000000E+00  0.00000000E+00  0.00000000E+00
  0.00000000E+00  0.00000000E+00  0.00000000E+00
  0.00000000E+00  0.00000000E+00  0.00000000E+00
  0.00000000E+00  0.00000000E+00  0.00000000E+00
  0.00000000E+00  0.00000000E+00  0.00000000E+00
  0.00000000E+00  0.00000000E+00  0.00000000E+00
  0.00000000E+00  0.00000000E+00  0.00000000E+00
  0.00000000E+00  0.00000000E+00  0.00000000E+00
  0.00000000E+00  0.00000000E+00  0.00000000E+00
  0.00000000E+00  0.00000000E+00  0.00000000E+00
  0.00000000E+00  0.00000000E+00  0.00000000E+00
  0.00000000E+00  0.00000000E+00  0.00000000E+00
  0.00000000E+00  0.00000000E+00  0.00000000E+00
