pyclupan: 4-2-11
   1.00000000000000
     0.0000000000000000   -2.0457766549484551   -2.0457766549484551
    -1.9292632312266207   -2.0603046150407360    4.1060812699891915
    -3.9601825426788846    2.0928256107290428   -2.0928256107290424
   Cu   Au
     1     3
Direct
  0.7500000000000000  0.5000000000000000  0.2500000000000000
  0.0113308749848713  0.0226617499697355  0.0100493427364654
  0.2500000000000000  0.5000000000000000  0.7500000000000000
  0.4886691250151287  0.9773382500302645  0.4899506572635346

  0.00000000E+00  0.00000000E+00  0.00000000E+00
  0.00000000E+00  0.00000000E+00  0.00000000E+00
  0.00000000E+00  0.00000000E+00  0.00000000E+00
  0.00000000E+00  0.00000000E+00  0.00000000E+00
