pyclupan: 4-7-304
   1.00000000000000
     5.4307580369494142    0.0168854477834274    0.0009112512152568
     0.0185894789302462    5.9277214943885737   -0.0320111064059323
    -0.0073343753301474   -2.6267876485643749    5.3350724413415769
   Si   Al   C    N
     4     4     4     4
Direct
  0.3234165681595869  0.4918288139245774  0.5011410030726182
  0.8332022401191281  0.7534645189065543  0.7448234102135771
  0.6560938940201382  0.7618954201104842  0.2549614231788482
  0.6630404762345350  0.2463501738114502  0.7367078090974033
  0.3325601118073607  0.0020463627742799  0.0043312321849243
  0.8369976309316769  0.2470665971551611  0.2517221552487285
  0.1737037971291144  0.5044011672065878  0.0023833424426769
  0.1738995397817433  0.0000363520010822  0.4931622495803296
  0.3508370588417904  0.8064626509532786  0.1877448710978058
  0.8252653483969041  0.0514399920928525  0.4440110440015061
  0.3498186959665901  0.3172555530320551  0.6892085384618127
  0.1700758380959542  0.3225999363573138  0.2030686121300107
  0.8209891589127878  0.5679008344877232  0.9297791664989958
  0.6579583650119005  0.5791385981263915  0.4527450996894231
  0.1515928864990173  0.7915976360195955  0.6876670343820379
  0.6805483900917721  0.0565153930406197  0.9165430087192945

  0.00000000E+00  0.00000000E+00  0.00000000E+00
  0.00000000E+00  0.00000000E+00  0.00000000E+00
  0.00000000E+00  0.00000000E+00  0.00000000E+00
  0.00000000E+00  0.00000000E+00  0.00000000E+00
  0.00000000E+00  0.00000000E+00  0.00000000E+00
  0.00000000E+00  0.00000000E+00  0.00000000E+00
  0.00000000E+00  0.00000000E+00  0.00000000E+00
  0.00000000E+00  0.00000000E+00  0.00000000E+00
  0.00000000E+00  0.00000000E+00  0.00000000E+00
  0.00000000E+00  0.00000000E+00  0.00000000E+00
  0.00000000E+00  0.00000000E+00  0.00000000E+00
  0.00000000E+00  0.00000000E+00  0.00000000E+00
  0.00000000E+00  0.00000000E+00  0.00000000E+00
  0.00000000E+00  0.00000000E+00  0.00000000E+00
  0.00000000E+00  0.00000000E+00  0.00000000E+00
  0.00000000E+00  0.00000000E+00  0.00000000E+00
