pyclupan: 6-2-29
   1.00000000000000
     0.0000000000000000    2.0309718940212993    2.0309718940212993
     0.0308823741467615   -4.0397731612078864    4.0397731612078864
     5.8443584884727073   -0.0299431251677986   -2.0010287688535002
   Cu   Ag
     2     4
Direct
  0.9973063712425869  0.4882151668445189  0.9946127424851809
  0.3360269620907488  0.1784514998221454  0.6720539241814834
  0.9933919870642853  0.0097894758069330  0.9867839741285636
  0.6666666666666643  0.8333333333333357  0.3333333333333357
  0.3399413462690504  0.6568771908597313  0.6798826925381007
  0.6666666666666643  0.3333333333333357  0.3333333333333357

  0.00000000E+00  0.00000000E+00  0.00000000E+00
  0.00000000E+00  0.00000000E+00  0.00000000E+00
  0.00000000E+00  0.00000000E+00  0.00000000E+00
  0.00000000E+00  0.00000000E+00  0.00000000E+00
  0.00000000E+00  0.00000000E+00  0.00000000E+00
  0.00000000E+00  0.00000000E+00  0.00000000E+00
