pyclupan: 4-10-240
   1.00000000000000
     5.0133728096832808    0.0007127352365535    0.0012573556020785
     0.0009730743757819    6.2789244698566788   -0.0113089965673871
     0.0008086289686093   -3.1492426178577628    5.4197696006756892
   Si   Al   C    N
     3     5     3     5
Direct
  0.9925123570085859  0.6625581497245747  0.8339063293303752
  0.5069899536706828  0.3257518358884965  0.1658821491751112
  0.4995978401664729  0.8332619938421715  0.6737870166035052
  0.9991386336807651  0.1702238927886128  0.3318380643144323
  0.9916132821519312  0.6638139729351025  0.3317370807729105
  0.9866098419556053  0.1700918503636544  0.8348644727715921
  0.4984735504598063  0.8370609058986602  0.1639773813613061
  0.4985182004946367  0.3354197320873027  0.6645644475465886
  0.3865574679330308  0.1566939498555939  0.8411797613114587
  0.8905488074503083  0.8286444083751618  0.1544214183614230
  0.8877100031753287  0.3481015627628636  0.6696020698604954
  0.3867567874044724  0.1777959123511792  0.3238857612721446
  0.3889034140009002  0.6555702696487771  0.3462360237171112
  0.3635166894208908  0.6763594701635753  0.8222409714774059
  0.8603419940282038  0.3368032823488321  0.1702785141423888
  0.8622111769983718  0.8218488109654558  0.6715985379817724

  0.00000000E+00  0.00000000E+00  0.00000000E+00
  0.00000000E+00  0.00000000E+00  0.00000000E+00
  0.00000000E+00  0.00000000E+00  0.00000000E+00
  0.00000000E+00  0.00000000E+00  0.00000000E+00
  0.00000000E+00  0.00000000E+00  0.00000000E+00
  0.00000000E+00  0.00000000E+00  0.00000000E+00
  0.00000000E+00  0.00000000E+00  0.00000000E+00
  0.00000000E+00  0.00000000E+00  0.00000000E+00
  0.00000000E+00  0.00000000E+00  0.00000000E+00
  0.00000000E+00  0.00000000E+00  0.00000000E+00
  0.00000000E+00  0.00000000E+00  0.00000000E+00
  0.00000000E+00  0.00000000E+00  0.00000000E+00
  0.00000000E+00  0.00000000E+00  0.00000000E+00
  0.00000000E+00  0.00000000E+00  0.00000000E+00
  0.00000000E+00  0.00000000E+00  0.00000000E+00
  0.00000000E+00  0.00000000E+00  0.00000000E+00
