pyclupan: 3-3-7
   1.00000000000000
     3.1152301860708898    0.0000000000000000    0.0000000000000000
     0.0000000000000000   16.3052134883662845    0.0000000000000000
     0.0000000000000000    0.0000000000000000    5.0708791821813533
   Si   Al   C    N
     8     4     8     4
Direct
  0.0000000000000000  0.7817625644704194  0.4946111320031932
  0.5000000000000000  0.9453848850129916  0.5044641844875386
  0.0000000000000000  0.5546151149870084  0.0044641844875386
  0.5000000000000000  0.7182374355295806  0.9946111320031932
  0.5000000000000000  0.2817625644704194  0.4946111320031932
  0.0000000000000000  0.4453848850129916  0.5044641844875386
  0.5000000000000000  0.0546151149870084  0.0044641844875386
  0.0000000000000000  0.2182374355295806  0.9946111320031932
  0.5000000000000000  0.6044030496461161  0.5000677477989370
  0.0000000000000000  0.8955969503538839  0.0000677477989370
  0.0000000000000000  0.1044030496461161  0.5000677477989370
  0.5000000000000000  0.3955969503538839  0.0000677477989370
  0.5000000000000000  0.6140202649141457  0.8936341597568429
  0.5000000000000000  0.9497882933019710  0.8660415521991283
  0.0000000000000000  0.5502117066980290  0.3660415521991283
  0.0000000000000000  0.8859797350858543  0.3936341597568429
  0.0000000000000000  0.1140202649141457  0.8936341597568429
  0.0000000000000000  0.4497882933019710  0.8660415521991283
  0.5000000000000000  0.0502117066980290  0.3660415521991283
  0.5000000000000000  0.3859797350858543  0.3936341597568429
  0.0000000000000000  0.7702398938353383  0.8661812237543529
  0.5000000000000000  0.7297601061646617  0.3661812237543529
  0.5000000000000000  0.2702398938353383  0.8661812237543529
  0.0000000000000000  0.2297601061646617  0.3661812237543529

  0.00000000E+00  0.00000000E+00  0.00000000E+00
  0.00000000E+00  0.00000000E+00  0.00000000E+00
  0.00000000E+00  0.00000000E+00  0.00000000E+00
  0.00000000E+00  0.00000000E+00  0.00000000E+00
  0.00000000E+00  0.00000000E+00  0.00000000E+00
  0.00000000E+00  0.00000000E+00  0.00000000E+00
  0.00000000E+00  0.00000000E+00  0.00000000E+00
  0.00000000E+00  0.00000000E+00  0.00000000E+00
  0.00000000E+00  0.00000000E+00  0.00000000E+00
  0.00000000E+00  0.00000000E+00  0.00000000E+00
  0.00000000E+00  0.00000000E+00  0.00000000E+00
  0.00000000E+00  0.00000000E+00  0.00000000E+00
  0.00000000E+00  0.00000000E+00  0.00000000E+00
  0.00000000E+00  0.00000000E+00  0.00000000E+00
  0.00000000E+00  0.00000000E+00  0.00000000E+00
  0.00000000E+00  0.00000000E+00  0.00000000E+00
  0.00000000E+00  0.00000000E+00  0.00000000E+00
  0.00000000E+00  0.00000000E+00  0.00000000E+00
  0.00000000E+00  0.00000000E+00  0.00000000E+00
  0.00000000E+00  0.00000000E+00  0.00000000E+00
  0.00000000E+00  0.00000000E+00  0.00000000E+00
  0.00000000E+00  0.00000000E+00  0.00000000E+00
  0.00000000E+00  0.00000000E+00  0.00000000E+00
  0.00000000E+00  0.00000000E+00  0.00000000E+00
