pyclupan: 6-9-0
   1.00000000000000
     4.1474032849885472    0.0000000000000000    0.0000000000000000
     0.0000000000000000    0.0000000000000000   -4.1473825227366765
     0.0000000000000000    6.2218882403715607    2.0736912613683383
   Ag   Au
     5     1
Direct
  0.5000000000000000  0.1668270410176760  0.3336540820353662
  0.0000000000000000  0.3331473056034326  0.6662946112068653
  0.5000000000000000  0.5000000000000000  0.0000000000000000
  0.0000000000000000  0.6668526943965674  0.3337053887931347
  0.5000000000000000  0.8331729589823240  0.6663459179646338
  0.0000000000000000  0.0000000000000000  0.0000000000000000

  0.00000000E+00  0.00000000E+00  0.00000000E+00
  0.00000000E+00  0.00000000E+00  0.00000000E+00
  0.00000000E+00  0.00000000E+00  0.00000000E+00
  0.00000000E+00  0.00000000E+00  0.00000000E+00
  0.00000000E+00  0.00000000E+00  0.00000000E+00
  0.00000000E+00  0.00000000E+00  0.00000000E+00
