pyclupan: 4-4-64
   1.00000000000000
     5.3801479100850642    0.0000000000000000    0.0125326548352126
     0.0000000000000000    3.1013185613127376    0.0000000000000000
     0.0235335253263587    0.0000000000000000   10.1351294026200591
   Si   Al   C    N
     6     2     6     2
Direct
  0.8338415349015591  0.5000000000000000  0.9978687314880403
  0.3440878733812198  0.0000000000000000  0.4980104935175689
  0.1674304072705866  0.5000000000000000  0.2502284642778037
  0.6642717213743765  0.0000000000000000  0.2499159909951842
  0.1600972465173172  0.5000000000000000  0.7494812318832018
  0.6723731788103535  0.0000000000000000  0.7515097651666096
  0.3308250028160344  0.0000000000000000  0.9988053478013015
  0.8276624625035254  0.5000000000000000  0.4997966103576346
  0.3280699326243806  0.0000000000000000  0.1955393799945355
  0.8373988861982369  0.5000000000000000  0.1872411355205443
  0.3317303173932586  0.0000000000000000  0.6882890881415449
  0.8345527328814839  0.5000000000000000  0.6949771999296317
  0.6556046074317905  0.0000000000000000  0.4318512231650686
  0.6793237468230586  0.0000000000000000  0.9375845655934469
  0.1766525072010978  0.5000000000000000  0.4374221713059256
  0.1560778418717277  0.5000000000000000  0.9314786008619649

  0.00000000E+00  0.00000000E+00  0.00000000E+00
  0.00000000E+00  0.00000000E+00  0.00000000E+00
  0.00000000E+00  0.00000000E+00  0.00000000E+00
  0.00000000E+00  0.00000000E+00  0.00000000E+00
  0.00000000E+00  0.00000000E+00  0.00000000E+00
  0.00000000E+00  0.00000000E+00  0.00000000E+00
  0.00000000E+00  0.00000000E+00  0.00000000E+00
  0.00000000E+00  0.00000000E+00  0.00000000E+00
  0.00000000E+00  0.00000000E+00  0.00000000E+00
  0.00000000E+00  0.00000000E+00  0.00000000E+00
  0.00000000E+00  0.00000000E+00  0.00000000E+00
  0.00000000E+00  0.00000000E+00  0.00000000E+00
  0.00000000E+00  0.00000000E+00  0.00000000E+00
  0.00000000E+00  0.00000000E+00  0.00000000E+00
  0.00000000E+00  0.00000000E+00  0.00000000E+00
  0.00000000E+00  0.00000000E+00  0.00000000E+00
