pyclupan: 6-8-65
   1.00000000000000
    -2.0572070095003312    2.0572070095003312    0.0000000000000000
    -2.0708567597958494   -2.0708567597958494    4.0357167625569739
     6.1646494975091510    4.1074424880088189    1.9785859715215914
   Cu   Ag   Au
     1     2     3
Direct
  0.8342593954971989  0.1630470190901789  0.6685187909943906
  0.3319394469824317  0.6583913978914993  0.6638788939648563
  0.6665017898734575  0.3409047420865932  0.3330035797469222
  0.9974716988752874  0.9943822855044644  0.9949433977505748
  0.1770569320180471  0.8574892137830403  0.3541138640361083
  0.4927707367535703  0.4857853416442239  0.9855414735071477

  0.00000000E+00  0.00000000E+00  0.00000000E+00
  0.00000000E+00  0.00000000E+00  0.00000000E+00
  0.00000000E+00  0.00000000E+00  0.00000000E+00
  0.00000000E+00  0.00000000E+00  0.00000000E+00
  0.00000000E+00  0.00000000E+00  0.00000000E+00
  0.00000000E+00  0.00000000E+00  0.00000000E+00
