pyclupan: 4-10-234
   1.00000000000000
     5.0388595676661039    0.0021800067510495   -0.0072674807098521
     0.0027946406978628    6.2840552923704633   -0.0287429256648246
    -0.0091415280724177   -3.1669164560536762    5.3854411579191730
   Si   Al   C    N
     3     5     3     5
Direct
  0.9981620664088950  0.6684161471404337  0.8388655027336824
  0.5033440186581046  0.3283470702876272  0.1647497069164245
  0.4957122053360976  0.8292111662913229  0.6728255894666404
  0.0032564045437908  0.1688604294451039  0.3317704309783309
  0.9957619132635145  0.6641744974975907  0.3338340320125042
  0.9896422581914379  0.1678804871484374  0.8331079798163614
  0.4952785263658370  0.8345182548106678  0.1633730402005398
  0.5016864819816291  0.3389823204687588  0.6655542884740768
  0.3884549576129857  0.1591664345761146  0.8343807794022879
  0.3612337266034729  0.6713042629148731  0.8214745620510300
  0.8855931276130704  0.8288964813349153  0.1608267748464272
  0.3870119792029101  0.1808464966476677  0.3257997203528689
  0.3887584287747075  0.6544727775982082  0.3411717014759788
  0.8599966879432799  0.3349823333624400  0.1705871134980939
  0.8854688648386926  0.3483054477363794  0.6703232262088648
  0.8606383526615744  0.8216353927394664  0.6713555515658953

  0.00000000E+00  0.00000000E+00  0.00000000E+00
  0.00000000E+00  0.00000000E+00  0.00000000E+00
  0.00000000E+00  0.00000000E+00  0.00000000E+00
  0.00000000E+00  0.00000000E+00  0.00000000E+00
  0.00000000E+00  0.00000000E+00  0.00000000E+00
  0.00000000E+00  0.00000000E+00  0.00000000E+00
  0.00000000E+00  0.00000000E+00  0.00000000E+00
  0.00000000E+00  0.00000000E+00  0.00000000E+00
  0.00000000E+00  0.00000000E+00  0.00000000E+00
  0.00000000E+00  0.00000000E+00  0.00000000E+00
  0.00000000E+00  0.00000000E+00  0.00000000E+00
  0.00000000E+00  0.00000000E+00  0.00000000E+00
  0.00000000E+00  0.00000000E+00  0.00000000E+00
  0.00000000E+00  0.00000000E+00  0.00000000E+00
  0.00000000E+00  0.00000000E+00  0.00000000E+00
  0.00000000E+00  0.00000000E+00  0.00000000E+00
