pyclupan: 4-6-6
   1.00000000000000
     0.0000000000000000    4.0448519577245587    0.0000000000000000
     0.0000000000000000    0.0000000000000000    4.0448519577245587
     4.0448519577245587    0.0000000000000000    0.0000000000000000
   Cu   Au
     1     3
Direct
  0.5000000000000000  0.5000000000000000  0.0000000000000000
  0.0000000000000000  0.0000000000000000  0.0000000000000000
  0.0000000000000000  0.5000000000000000  0.5000000000000000
  0.5000000000000000  0.0000000000000000  0.5000000000000000

  0.00000000E+00  0.00000000E+00  0.00000000E+00
  0.00000000E+00  0.00000000E+00  0.00000000E+00
  0.00000000E+00  0.00000000E+00  0.00000000E+00
  0.00000000E+00  0.00000000E+00  0.00000000E+00
