pyclupan: 4-9-7
   1.00000000000000
     5.3671950300794560    0.0000000000000000   -0.0093118101182303
     0.0000000000000000    5.0591830207417408    0.0000000000000000
    -0.0108542261802317    0.0000000000000000    6.2283338635739351
   Si   Al   C    N
     6     2     6     2
Direct
  0.8326684485670270  0.0010538152761299  0.0002380063834124
  0.3286053918830589  0.9997721235025097  0.2515968542606970
  0.8367443484029025  0.0003169201046447  0.4992083206908902
  0.1632556515970975  0.5003169201046447  0.5007916793091098
  0.6713946081169411  0.4997721235025097  0.7484031457393030
  0.1673315514329730  0.5010538152761299  0.9997619936165876
  0.3356507906418855  0.0041687337862157  0.7483578536123972
  0.6643492093581145  0.5041687337862157  0.2516421463876028
  0.3362426930158406  0.6049710316208916  0.7565495619950511
  0.3106458323390910  0.6297334212156969  0.2456402316723896
  0.8380654278707027  0.6300018502127145  0.5133488697081106
  0.1619345721292973  0.1300018502127145  0.4866511302918894
  0.6893541676609090  0.1297334212156969  0.7543597683276104
  0.6637573069841594  0.1049710316208916  0.2434504380049489
  0.8453235050179515  0.6299821042811971  0.9886822491217373
  0.1546764949820485  0.1299821042811971  0.0113177508782627

  0.00000000E+00  0.00000000E+00  0.00000000E+00
  0.00000000E+00  0.00000000E+00  0.00000000E+00
  0.00000000E+00  0.00000000E+00  0.00000000E+00
  0.00000000E+00  0.00000000E+00  0.00000000E+00
  0.00000000E+00  0.00000000E+00  0.00000000E+00
  0.00000000E+00  0.00000000E+00  0.00000000E+00
  0.00000000E+00  0.00000000E+00  0.00000000E+00
  0.00000000E+00  0.00000000E+00  0.00000000E+00
  0.00000000E+00  0.00000000E+00  0.00000000E+00
  0.00000000E+00  0.00000000E+00  0.00000000E+00
  0.00000000E+00  0.00000000E+00  0.00000000E+00
  0.00000000E+00  0.00000000E+00  0.00000000E+00
  0.00000000E+00  0.00000000E+00  0.00000000E+00
  0.00000000E+00  0.00000000E+00  0.00000000E+00
  0.00000000E+00  0.00000000E+00  0.00000000E+00
  0.00000000E+00  0.00000000E+00  0.00000000E+00
