pyclupan: 3-0-154
   1.00000000000000
     3.2110110071741955    0.0000000000000000    0.0000000000000000
    -1.6055055035870978    2.7808171040443082    0.0000000000000000
     0.0000000000000000    0.0000000000000000   14.0823952117726758
   Si   Al   C    N
     1     5     1     5
Direct
  0.6666666666666643  0.3333333333333357  0.8124238342880972
  0.3333333333333357  0.6666666666666643  0.9819530515162924
  0.3333333333333357  0.6666666666666643  0.3338965645002645
  0.3333333333333357  0.6666666666666643  0.6642088178151511
  0.6666666666666643  0.3333333333333357  0.1582684361820128
  0.6666666666666643  0.3333333333333357  0.5109849310667585
  0.6666666666666643  0.3333333333333357  0.6542711581420733
  0.3333333333333357  0.6666666666666643  0.1183446689175938
  0.3333333333333357  0.6666666666666643  0.4699299215104276
  0.3333333333333357  0.6666666666666643  0.8067932998155243
  0.6666666666666643  0.3333333333333357  0.2942905715280304
  0.6666666666666643  0.3333333333333357  0.9446347447177814

  0.00000000E+00  0.00000000E+00  0.00000000E+00
  0.00000000E+00  0.00000000E+00  0.00000000E+00
  0.00000000E+00  0.00000000E+00  0.00000000E+00
  0.00000000E+00  0.00000000E+00  0.00000000E+00
  0.00000000E+00  0.00000000E+00  0.00000000E+00
  0.00000000E+00  0.00000000E+00  0.00000000E+00
  0.00000000E+00  0.00000000E+00  0.00000000E+00
  0.00000000E+00  0.00000000E+00  0.00000000E+00
  0.00000000E+00  0.00000000E+00  0.00000000E+00
  0.00000000E+00  0.00000000E+00  0.00000000E+00
  0.00000000E+00  0.00000000E+00  0.00000000E+00
  0.00000000E+00  0.00000000E+00  0.00000000E+00
