pyclupan: 5-4-17
   1.00000000000000
    -4.1484837170313886    0.0000000000000000    0.0000000000000000
    -2.0742418585156943   -4.1477843336917379   -2.0738921668987098
     2.0742418585156943   -2.0738921668987098    4.1477843336917379
   Ag   Au
     4     1
Direct
  0.5999732997785330  0.5998517913937391  0.7997983909507909
  0.1998250911722721  0.2002016090492091  0.5998517913937391
  0.8001749088277279  0.7997983909507909  0.4001482086062609
  0.4000267002214670  0.4001482086062609  0.2002016090492091
  0.0000000000000000  0.0000000000000000  0.0000000000000000

  0.00000000E+00  0.00000000E+00  0.00000000E+00
  0.00000000E+00  0.00000000E+00  0.00000000E+00
  0.00000000E+00  0.00000000E+00  0.00000000E+00
  0.00000000E+00  0.00000000E+00  0.00000000E+00
  0.00000000E+00  0.00000000E+00  0.00000000E+00
