pyclupan: 6-4-35
   1.00000000000000
     0.0000000000000000   -2.0239817517656817   -2.0239817517656817
     1.9090705329243771    3.9790873217741134   -1.9551055700084321
     6.0655054422586279   -2.0700027898064874    4.0939845415721692
   Cu   Ag   Au
     2     2     2
Direct
  0.5072247795805040  0.5015569188983164  0.5128926402626988
  0.1594418870861602  0.4984430811016836  0.8204406930706369
  0.8333333333333357  0.5000000000000000  0.1666666666666643
  0.3333333333333357  0.0000000000000000  0.6666666666666643
  0.9867854267349543  0.9845265350940053  0.9890443183759032
  0.6798812399317100  0.0154734649059947  0.3442890149574325

  0.00000000E+00  0.00000000E+00  0.00000000E+00
  0.00000000E+00  0.00000000E+00  0.00000000E+00
  0.00000000E+00  0.00000000E+00  0.00000000E+00
  0.00000000E+00  0.00000000E+00  0.00000000E+00
  0.00000000E+00  0.00000000E+00  0.00000000E+00
  0.00000000E+00  0.00000000E+00  0.00000000E+00
