pyclupan: 3-0-2
   1.00000000000000
     3.1148468801366569    0.0000000000000000    0.0000000000000000
    -1.5574234400683284    2.6975365270970477    0.0000000000000000
     0.0000000000000000    0.0000000000000000   15.2557183233495941
   Si   Al   C    N
     5     1     5     1
Direct
  0.3333333333333357  0.6666666666666643  0.3343338709625030
  0.3333333333333357  0.6666666666666643  0.6665868337576910
  0.6666666666666643  0.3333333333333357  0.1635504738351798
  0.6666666666666643  0.3333333333333357  0.5000506364531958
  0.6666666666666643  0.3333333333333357  0.8338328128967802
  0.3333333333333357  0.6666666666666643  0.9960983579776368
  0.3333333333333357  0.6666666666666643  0.1395042291866631
  0.3333333333333357  0.6666666666666643  0.4553453168675645
  0.3333333333333357  0.6666666666666643  0.7887358780594553
  0.6666666666666643  0.3333333333333357  0.6221124577056969
  0.6666666666666643  0.3333333333333357  0.9539149448466020
  0.6666666666666643  0.3333333333333357  0.2959341874510244

  0.00000000E+00  0.00000000E+00  0.00000000E+00
  0.00000000E+00  0.00000000E+00  0.00000000E+00
  0.00000000E+00  0.00000000E+00  0.00000000E+00
  0.00000000E+00  0.00000000E+00  0.00000000E+00
  0.00000000E+00  0.00000000E+00  0.00000000E+00
  0.00000000E+00  0.00000000E+00  0.00000000E+00
  0.00000000E+00  0.00000000E+00  0.00000000E+00
  0.00000000E+00  0.00000000E+00  0.00000000E+00
  0.00000000E+00  0.00000000E+00  0.00000000E+00
  0.00000000E+00  0.00000000E+00  0.00000000E+00
  0.00000000E+00  0.00000000E+00  0.00000000E+00
  0.00000000E+00  0.00000000E+00  0.00000000E+00
