pyclupan: 2-0-0
   1.00000000000000
    -2.0741281083707750    0.0000000000000000   -2.0741281083707745
     0.0000000000000000    2.0741281083707750    2.0741281083707745
     4.1483537810969917    2.0742256727262163   -2.0742256727262163
   Ag   Au
     1     1
Direct
  0.0000000000000000  0.5000000000000000  0.5000000000000000
  0.0000000000000000  0.0000000000000000  0.0000000000000000

  0.00000000E+00  0.00000000E+00  0.00000000E+00
  0.00000000E+00  0.00000000E+00  0.00000000E+00
