pyclupan: 6-8-1
   1.00000000000000
    -1.9059049754324953    1.9059049754324953    0.0000000000000000
    -1.8739631768522231   -1.8739631768522231    3.7001617164672540
     5.6188825904535182    3.7129776150210221    1.8311573984560643
   Cu   Au
     5     1
Direct
  0.1704189120019564  0.8326000284738839  0.3408378240039198
  0.3279428540177705  0.6564349451442908  0.6558857080355409
  0.5000000000000000  0.5000000000000000  0.0000000000000000
  0.6720571459822295  0.3435650548557092  0.3441142919644591
  0.8295810879980436  0.1673999715261161  0.6591621759960802
  0.0000000000000000  0.0000000000000000  0.0000000000000000

  0.00000000E+00  0.00000000E+00  0.00000000E+00
  0.00000000E+00  0.00000000E+00  0.00000000E+00
  0.00000000E+00  0.00000000E+00  0.00000000E+00
  0.00000000E+00  0.00000000E+00  0.00000000E+00
  0.00000000E+00  0.00000000E+00  0.00000000E+00
  0.00000000E+00  0.00000000E+00  0.00000000E+00
