pyclupan: 4-0-9
1.0
   4.000000000000000 0.000000000000000 0.000000000000000
   0.000000000000000 4.000000000000000 0.000000000000000
   0.000000000000000 0.000000000000000 16.000000000000000
 Sr  Cu  O
 4  4  9
Direct
   0.000000000000000 0.000000000000000 0.000000000000000
   0.000000000000000 0.000000000000000 0.250000000000000
   0.000000000000000 0.000000000000000 0.500000000000000
   0.000000000000000 0.000000000000000 0.750000000000000
   0.500000000000000 0.500000000000000 0.125000000000000
   0.500000000000000 0.500000000000000 0.375000000000000
   0.500000000000000 0.500000000000000 0.625000000000000
   0.500000000000000 0.500000000000000 0.875000000000000
   0.500000000000000 0.500000000000000 0.000000000000000
   0.500000000000000 0.500000000000000 0.250000000000000
   0.500000000000000 0.500000000000000 0.500000000000000
   0.500000000000000 0.500000000000000 0.750000000000000
   0.000000000000000 0.500000000000000 0.625000000000000
   0.000000000000000 0.500000000000000 0.875000000000000
   0.500000000000000 0.000000000000000 0.375000000000000
   0.500000000000000 0.000000000000000 0.625000000000000
   0.500000000000000 0.000000000000000 0.875000000000000
