pyclupan: 4-5-106
   1.00000000000000
     7.3848747871719764    0.0000000000000000    0.0535545395368146
     0.0000000000000000    3.1090137303122067    0.0000000000000000
    -0.5308906268713557    0.0000000000000000    7.4230755159978488
   Si   Al   C    N
     5     3     5     3
Direct
  0.4186283203893382  0.5000000000000000  0.5724395649673539
  0.9168321866269480  0.5000000000000000  0.0797827210814646
  0.3371277739580592  0.5000000000000000  0.1708054348024461
  0.8335442197160319  0.5000000000000000  0.6702636716655448
  0.0836016686353176  0.0000000000000000  0.4165297081223471
  0.1600927233744969  0.0000000000000000  0.8399857559743040
  0.6622036958343500  0.0000000000000000  0.3249409709521700
  0.5843717938342010  0.0000000000000000  0.9188783760323602
  0.3528253599036759  0.0000000000000000  0.0329483091024798
  0.1038330313261682  0.5000000000000000  0.2826900719970169
  0.5138574691742548  0.5000000000000000  0.3621796759391600
  0.7863095666864695  0.0000000000000000  0.1023312115071491
  0.0059356920080305  0.5000000000000000  0.8493008228077414
  0.6018861517649157  0.5000000000000000  0.7470178805938374
  0.8636787356645215  0.0000000000000000  0.5298515870448171
  0.2752716111032143  0.0000000000000000  0.6000542374098075

  0.00000000E+00  0.00000000E+00  0.00000000E+00
  0.00000000E+00  0.00000000E+00  0.00000000E+00
  0.00000000E+00  0.00000000E+00  0.00000000E+00
  0.00000000E+00  0.00000000E+00  0.00000000E+00
  0.00000000E+00  0.00000000E+00  0.00000000E+00
  0.00000000E+00  0.00000000E+00  0.00000000E+00
  0.00000000E+00  0.00000000E+00  0.00000000E+00
  0.00000000E+00  0.00000000E+00  0.00000000E+00
  0.00000000E+00  0.00000000E+00  0.00000000E+00
  0.00000000E+00  0.00000000E+00  0.00000000E+00
  0.00000000E+00  0.00000000E+00  0.00000000E+00
  0.00000000E+00  0.00000000E+00  0.00000000E+00
  0.00000000E+00  0.00000000E+00  0.00000000E+00
  0.00000000E+00  0.00000000E+00  0.00000000E+00
  0.00000000E+00  0.00000000E+00  0.00000000E+00
  0.00000000E+00  0.00000000E+00  0.00000000E+00
