pyclupan: 4-4-1197
   1.00000000000000
     5.4161441503782992    0.0000000000000000   -0.0118603481616809
     0.0000000000000000    3.1255339615433768    0.0000000000000000
    -0.0222373364075418    0.0000000000000000   10.1374082458623356
   Si   Al   C    N
     4     4     4     4
Direct
  0.8450711392535695  0.5000000000000000  0.4954744716488335
  0.6542906072319568  0.0000000000000000  0.2443517230803351
  0.1745825671840393  0.5000000000000000  0.7542563380231257
  0.6583368727534804  0.0000000000000000  0.7572907666686746
  0.3411321846565585  0.0000000000000000  0.9943704490370777
  0.8383524423212521  0.5000000000000000  0.9981500130562537
  0.3229318301841531  0.0000000000000000  0.4986178142183348
  0.1711932829719061  0.5000000000000000  0.2527992372787935
  0.3428989603786903  0.0000000000000000  0.1880718425449430
  0.3321155435632832  0.0000000000000000  0.6969284422416493
  0.1512682715463356  0.5000000000000000  0.4445790977879440
  0.6807858772525179  0.0000000000000000  0.9307117809792373
  0.8196699089233732  0.5000000000000000  0.1968540147588982
  0.8253438944973865  0.5000000000000000  0.6816293686770507
  0.6770796610235976  0.0000000000000000  0.4374046035789689
  0.1649469562579142  0.5000000000000000  0.9285100364198797

  0.00000000E+00  0.00000000E+00  0.00000000E+00
  0.00000000E+00  0.00000000E+00  0.00000000E+00
  0.00000000E+00  0.00000000E+00  0.00000000E+00
  0.00000000E+00  0.00000000E+00  0.00000000E+00
  0.00000000E+00  0.00000000E+00  0.00000000E+00
  0.00000000E+00  0.00000000E+00  0.00000000E+00
  0.00000000E+00  0.00000000E+00  0.00000000E+00
  0.00000000E+00  0.00000000E+00  0.00000000E+00
  0.00000000E+00  0.00000000E+00  0.00000000E+00
  0.00000000E+00  0.00000000E+00  0.00000000E+00
  0.00000000E+00  0.00000000E+00  0.00000000E+00
  0.00000000E+00  0.00000000E+00  0.00000000E+00
  0.00000000E+00  0.00000000E+00  0.00000000E+00
  0.00000000E+00  0.00000000E+00  0.00000000E+00
  0.00000000E+00  0.00000000E+00  0.00000000E+00
  0.00000000E+00  0.00000000E+00  0.00000000E+00
