pyclupan: 3-3-95
   1.00000000000000
    16.3077003289146916    0.0000000000000000   -0.0277726395817331
     0.0000000000000000    3.1107717435866684    0.0000000000000000
    -0.0086653719214176    0.0000000000000000    5.0338419815078881
   Si   Al   C    N
     4     8     4     8
Direct
  0.0535982727008530  0.5000000000000000  0.0123345086427094
  0.4466193763690995  0.0000000000000000  0.4964944559638553
  0.5535982727008530  0.0000000000000000  0.0123345086427094
  0.9466193763690995  0.5000000000000000  0.4964944559638553
  0.3895032808474070  0.5000000000000000  0.0100976899037164
  0.2226272021270290  0.0000000000000000  0.9991258769549134
  0.2774477213490769  0.5000000000000000  0.4909644393447934
  0.1102442906771728  0.0000000000000000  0.5063625161030174
  0.8895032808474070  0.0000000000000000  0.0100976899037164
  0.7226272021270290  0.5000000000000000  0.9991258769549134
  0.7774477213490769  0.0000000000000000  0.4909644393447934
  0.6102442906771728  0.5000000000000000  0.5063625161030174
  0.4475950909281323  0.0000000000000000  0.1374120023196568
  0.1077673644185566  0.0000000000000000  0.1100612149283791
  0.9475950909281323  0.5000000000000000  0.1374120023196568
  0.6077673644185566  0.5000000000000000  0.1100612149283791
  0.3937754453768889  0.5000000000000000  0.6165349180886253
  0.2237241245398351  0.0000000000000000  0.6161213018918730
  0.0482410007853673  0.5000000000000000  0.6392724592203578
  0.2788568298805814  0.5000000000000000  0.1152186166381099
  0.8937754453768889  0.0000000000000000  0.6165349180886253
  0.7237241245398351  0.5000000000000000  0.6161213018918730
  0.5482410007853673  0.0000000000000000  0.6392724592203578
  0.7788568298805814  0.0000000000000000  0.1152186166381099

  0.00000000E+00  0.00000000E+00  0.00000000E+00
  0.00000000E+00  0.00000000E+00  0.00000000E+00
  0.00000000E+00  0.00000000E+00  0.00000000E+00
  0.00000000E+00  0.00000000E+00  0.00000000E+00
  0.00000000E+00  0.00000000E+00  0.00000000E+00
  0.00000000E+00  0.00000000E+00  0.00000000E+00
  0.00000000E+00  0.00000000E+00  0.00000000E+00
  0.00000000E+00  0.00000000E+00  0.00000000E+00
  0.00000000E+00  0.00000000E+00  0.00000000E+00
  0.00000000E+00  0.00000000E+00  0.00000000E+00
  0.00000000E+00  0.00000000E+00  0.00000000E+00
  0.00000000E+00  0.00000000E+00  0.00000000E+00
  0.00000000E+00  0.00000000E+00  0.00000000E+00
  0.00000000E+00  0.00000000E+00  0.00000000E+00
  0.00000000E+00  0.00000000E+00  0.00000000E+00
  0.00000000E+00  0.00000000E+00  0.00000000E+00
  0.00000000E+00  0.00000000E+00  0.00000000E+00
  0.00000000E+00  0.00000000E+00  0.00000000E+00
  0.00000000E+00  0.00000000E+00  0.00000000E+00
  0.00000000E+00  0.00000000E+00  0.00000000E+00
  0.00000000E+00  0.00000000E+00  0.00000000E+00
  0.00000000E+00  0.00000000E+00  0.00000000E+00
  0.00000000E+00  0.00000000E+00  0.00000000E+00
  0.00000000E+00  0.00000000E+00  0.00000000E+00
