pyclupan: 6-8-59
   1.00000000000000
    -2.0565276844500939    2.0565276844500939    0.0000000000000000
    -2.0541361780646943   -2.0541361780646947    4.0551767078867602
     6.1304856983136133    4.0739580138635203    1.9949569458479730
   Cu   Ag   Au
     1     3     2
Direct
  0.8344673326000347  0.1675253821872218  0.6689346652000552
  0.1728042678708235  0.8443264743375138  0.3456085357416470
  0.3316654171181952  0.6654587786295991  0.6633308342363762
  0.6685585098670472  0.3333449606298018  0.3371170197341087
  0.9984519919694037  0.9991460914756161  0.9969039839388003
  0.4940524805745028  0.4901983127402403  0.9881049611490056

  0.00000000E+00  0.00000000E+00  0.00000000E+00
  0.00000000E+00  0.00000000E+00  0.00000000E+00
  0.00000000E+00  0.00000000E+00  0.00000000E+00
  0.00000000E+00  0.00000000E+00  0.00000000E+00
  0.00000000E+00  0.00000000E+00  0.00000000E+00
  0.00000000E+00  0.00000000E+00  0.00000000E+00
