pyclupan: 2-1-3
1.0
   4.000000000000000 0.000000000000000 0.000000000000000
   0.000000000000000 8.000000000000000 0.000000000000000
   0.000000000000000 0.000000000000000 8.000000000000000
 Sr  Cu  O
 4  4  8
Direct
   0.000000000000000 0.250000000000000 0.250000000000000
   0.000000000000000 0.250000000000000 0.750000000000000
   0.000000000000000 0.750000000000000 0.750000000000000
   0.000000000000000 0.750000000000000 0.250000000000000
   0.500000000000000 0.500000000000000 0.500000000000000
   0.500000000000000 0.000000000000000 0.500000000000000
   0.500000000000000 0.000000000000000 0.000000000000000
   0.500000000000000 0.500000000000000 0.000000000000000
   0.500000000000000 0.000000000000000 0.750000000000000
   0.000000000000000 0.000000000000000 0.500000000000000
   0.500000000000000 0.250000000000000 0.000000000000000
   0.500000000000000 0.250000000000000 0.500000000000000
   0.500000000000000 0.500000000000000 0.250000000000000
   0.000000000000000 0.500000000000000 0.000000000000000
   0.500000000000000 0.750000000000000 0.500000000000000
   0.500000000000000 0.750000000000000 0.000000000000000
