pyclupan: 6-9-56
   1.00000000000000
     4.1420009498759276    0.0000000000000000    0.0000000000000000
     0.0000000000000000    0.0000000000000000   -4.0040851167873850
     0.0000000000000000    6.1346032197625311    2.0020425583936925
   Cu   Ag   Au
     1     2     3
Direct
  0.5000000000000000  0.8333333333333357  0.6666666666666643
  0.0000000000000000  0.9983368873216918  0.9966737746433836
  0.0000000000000000  0.6683297793449725  0.3366595586899521
  0.5000000000000000  0.1726131657823302  0.3452263315646675
  0.0000000000000000  0.3333333333333357  0.6666666666666643
  0.5000000000000000  0.4940535008843341  0.9881070017686682

  0.00000000E+00  0.00000000E+00  0.00000000E+00
  0.00000000E+00  0.00000000E+00  0.00000000E+00
  0.00000000E+00  0.00000000E+00  0.00000000E+00
  0.00000000E+00  0.00000000E+00  0.00000000E+00
  0.00000000E+00  0.00000000E+00  0.00000000E+00
  0.00000000E+00  0.00000000E+00  0.00000000E+00
