pyclupan: 4-4-6
   1.00000000000000
     4.0342329988848720    0.0000000000000000    0.0000000000000000
     0.0000000000000000    0.0000000000000000   -4.0342329988848720
    -2.0171164994424360    4.0346144462505071    2.0171164994424360
   Cu   Ag
     1     3
Direct
  0.2500000000000000  0.7500000000000000  0.5000000000000000
  0.0000000000000000  0.0000000000000000  0.0000000000000000
  0.7500000000000000  0.2500000000000000  0.5000000000000000
  0.5000000000000000  0.5000000000000000  0.0000000000000000

  0.00000000E+00  0.00000000E+00  0.00000000E+00
  0.00000000E+00  0.00000000E+00  0.00000000E+00
  0.00000000E+00  0.00000000E+00  0.00000000E+00
  0.00000000E+00  0.00000000E+00  0.00000000E+00
