pyclupan: 6-1-1
   1.00000000000000
     0.0000000000000000    2.0619618601366057    2.0619618601366061
     4.1686403579628672    0.0000000000000000    0.0000000000000000
     0.0000000000000001    6.2185897448492735   -6.2185897448492735
   Ag   Au
     4     2
Direct
  0.5000000000000000  0.5000000000000000  0.1666666666666643
  0.5000000000000000  0.5000000000000000  0.5003678611890123
  0.0000000000000000  0.0000000000000000  0.6666666666666643
  0.5000000000000000  0.5000000000000000  0.8329654721443234
  0.0000000000000000  0.0000000000000000  0.9986866558495890
  0.0000000000000000  0.0000000000000000  0.3346466774837467

  0.00000000E+00  0.00000000E+00  0.00000000E+00
  0.00000000E+00  0.00000000E+00  0.00000000E+00
  0.00000000E+00  0.00000000E+00  0.00000000E+00
  0.00000000E+00  0.00000000E+00  0.00000000E+00
  0.00000000E+00  0.00000000E+00  0.00000000E+00
  0.00000000E+00  0.00000000E+00  0.00000000E+00
