pyclupan: 4-7-514
   1.00000000000000
     5.3783799828066972   -0.0088259134373586   -0.0062419886036061
    -0.0096921953396273    5.9592740769854586   -0.0430699255409079
    -0.0017835964147048   -2.6505990515206959    5.3350284586134675
   Si   Al   C    N
     4     4     4     4
Direct
  0.8321279865025986  0.7514817396407594  0.7453541966505952
  0.1636372679074753  0.4996022715233366  0.0116706177590800
  0.1634944536890544  0.9986530580340016  0.4990875251662956
  0.6730031858037080  0.2449983040083410  0.7526299314074123
  0.3270422534059492  0.0033123050857640  0.0001584055613719
  0.8349699453746311  0.2527102717736014  0.2475167713350004
  0.3350195992643776  0.5079078303563023  0.4958654637376725
  0.6683602470139363  0.7487269766062994  0.2500063903852237
  0.3173758487069165  0.8102258619158604  0.1978056806634996
  0.8418024160108004  0.5520501671081490  0.9164619683665549
  0.1684627011314177  0.3198277071946407  0.1855437354557878
  0.6704801446751389  0.0500887598781290  0.9180328148406431
  0.8410775290484835  0.0695936777799915  0.4569479595521102
  0.3385878969793481  0.3018976653544598  0.6894477524022236
  0.6758837326209814  0.5702545638121066  0.4545432508787712
  0.1486747918651830  0.8186688399282644  0.6789275358377580

  0.00000000E+00  0.00000000E+00  0.00000000E+00
  0.00000000E+00  0.00000000E+00  0.00000000E+00
  0.00000000E+00  0.00000000E+00  0.00000000E+00
  0.00000000E+00  0.00000000E+00  0.00000000E+00
  0.00000000E+00  0.00000000E+00  0.00000000E+00
  0.00000000E+00  0.00000000E+00  0.00000000E+00
  0.00000000E+00  0.00000000E+00  0.00000000E+00
  0.00000000E+00  0.00000000E+00  0.00000000E+00
  0.00000000E+00  0.00000000E+00  0.00000000E+00
  0.00000000E+00  0.00000000E+00  0.00000000E+00
  0.00000000E+00  0.00000000E+00  0.00000000E+00
  0.00000000E+00  0.00000000E+00  0.00000000E+00
  0.00000000E+00  0.00000000E+00  0.00000000E+00
  0.00000000E+00  0.00000000E+00  0.00000000E+00
  0.00000000E+00  0.00000000E+00  0.00000000E+00
  0.00000000E+00  0.00000000E+00  0.00000000E+00
