pyclupan: 5-4-1
   1.00000000000000
    -4.1472860963090161    0.0000000000000000    0.0000000000000000
    -2.0736430481545081   -4.1438427514163791   -2.0734247762942144
     2.0736430481545081   -2.0723388145368564    4.1476843127323830
   Ag   Au
     3     2
Direct
  0.1999533511241722  0.1999255460645202  0.5998322483128433
  0.7999999999999972  0.7999999999999972  0.3999999999999986
  0.4000466488758292  0.4000744539354812  0.2001677516871609
  0.9999917484465470  0.0004159296355937  0.0003994265286877
  0.6000082515534544  0.5995840703644078  0.7996005734713094

  0.00000000E+00  0.00000000E+00  0.00000000E+00
  0.00000000E+00  0.00000000E+00  0.00000000E+00
  0.00000000E+00  0.00000000E+00  0.00000000E+00
  0.00000000E+00  0.00000000E+00  0.00000000E+00
  0.00000000E+00  0.00000000E+00  0.00000000E+00
