pyclupan: 4-7-33
   1.00000000000000
     5.3765446121789937    0.0105579049545383   -0.0019023253479767
     0.0117283558807847    5.9304940751055275   -0.0487038524234692
    -0.0071276492569816   -2.6430229527103952    5.3229874638718604
   Si   Al   C    N
     6     2     6     2
Direct
  0.8402605062547153  0.2545949394988085  0.2521715971152148
  0.3267426330568526  0.4933099475271803  0.4992900275667793
  0.8347007252674246  0.7493525149408384  0.7443373601891992
  0.6623586548927065  0.7501037013265304  0.2499910062897968
  0.1713546270431863  0.9965537385134269  0.4990570890898098
  0.6676792929006297  0.2543480317117144  0.7462201263577484
  0.3349561113688750  0.0034429802587965  0.0010242719511240
  0.1656707005990370  0.5028089960007023  0.0033749434152099
  0.8344762398401997  0.0575395776663967  0.4339972279172244
  0.3405034995955489  0.2985286620724423  0.6791699493259884
  0.8129110837144253  0.5721253053394122  0.9367935984850888
  0.1602546249041055  0.3147220158545849  0.2020909887312925
  0.6586200757960228  0.5622099491423000  0.4353782481982051
  0.1619910091579584  0.8033482915706145  0.6788657133014908
  0.3429997696658802  0.8193585087770572  0.2034590402364103
  0.6845204459424465  0.0676528397992016  0.9347788118294247

  0.00000000E+00  0.00000000E+00  0.00000000E+00
  0.00000000E+00  0.00000000E+00  0.00000000E+00
  0.00000000E+00  0.00000000E+00  0.00000000E+00
  0.00000000E+00  0.00000000E+00  0.00000000E+00
  0.00000000E+00  0.00000000E+00  0.00000000E+00
  0.00000000E+00  0.00000000E+00  0.00000000E+00
  0.00000000E+00  0.00000000E+00  0.00000000E+00
  0.00000000E+00  0.00000000E+00  0.00000000E+00
  0.00000000E+00  0.00000000E+00  0.00000000E+00
  0.00000000E+00  0.00000000E+00  0.00000000E+00
  0.00000000E+00  0.00000000E+00  0.00000000E+00
  0.00000000E+00  0.00000000E+00  0.00000000E+00
  0.00000000E+00  0.00000000E+00  0.00000000E+00
  0.00000000E+00  0.00000000E+00  0.00000000E+00
  0.00000000E+00  0.00000000E+00  0.00000000E+00
  0.00000000E+00  0.00000000E+00  0.00000000E+00
