pyclupan: 3-0-141
   1.00000000000000
     3.1503937660711130    0.0000000000000000    0.0000000000000000
    -1.5751968830355565    2.7283210333417141    0.0000000000000000
     0.0000000000000000    0.0000000000000000   15.1068069857154832
   Si   Al   C    N
     2     4     2     4
Direct
  0.6666666666666643  0.3333333333333357  0.5038821321348266
  0.6666666666666643  0.3333333333333357  0.8296216196212427
  0.3333333333333357  0.6666666666666643  0.9952752894808654
  0.3333333333333357  0.6666666666666643  0.3352939174187597
  0.3333333333333357  0.6666666666666643  0.6565168242406898
  0.6666666666666643  0.3333333333333357  0.1659586819836605
  0.3333333333333357  0.6666666666666643  0.4806594488521654
  0.6666666666666643  0.3333333333333357  0.2935792176346510
  0.3333333333333357  0.6666666666666643  0.1153494607281544
  0.3333333333333357  0.6666666666666643  0.7944584354819852
  0.6666666666666643  0.3333333333333357  0.6338944689053179
  0.6666666666666643  0.3333333333333357  0.9455105035176672

  0.00000000E+00  0.00000000E+00  0.00000000E+00
  0.00000000E+00  0.00000000E+00  0.00000000E+00
  0.00000000E+00  0.00000000E+00  0.00000000E+00
  0.00000000E+00  0.00000000E+00  0.00000000E+00
  0.00000000E+00  0.00000000E+00  0.00000000E+00
  0.00000000E+00  0.00000000E+00  0.00000000E+00
  0.00000000E+00  0.00000000E+00  0.00000000E+00
  0.00000000E+00  0.00000000E+00  0.00000000E+00
  0.00000000E+00  0.00000000E+00  0.00000000E+00
  0.00000000E+00  0.00000000E+00  0.00000000E+00
  0.00000000E+00  0.00000000E+00  0.00000000E+00
  0.00000000E+00  0.00000000E+00  0.00000000E+00
