pyclupan: 1-0-1
   1.00000000000000
     2.0737622823338127   -2.0737622823338127    0.0000000000000000
    -2.0737622823338127    0.0000000000000000   -2.0737622823338127
     2.0737622823338127    2.0737622823338127    0.0000000000000000
   Ag
     1
Direct
  0.0000000000000000  0.0000000000000000  0.0000000000000000

  0.00000000E+00  0.00000000E+00  0.00000000E+00
