pyclupan: 4-1-226
   1.00000000000000
    11.5088523528975344    0.0000000000000000    0.0852017868841205
     0.0000000000000000    3.1092751785771613    0.0000000000000000
    -5.1428512101774233    0.0000000000000000    9.4439211625091275
   Si   Al   C    N
    10     6    10     6
Direct
  0.9977859974793759  0.5000000000000000  0.0784596334563048
  0.0025665391386553  0.0000000000000000  0.3338606960439563
  0.9994918423877408  0.5000000000000000  0.5797389039580665
  0.7522210800501554  0.0000000000000000  0.0458809771726649
  0.7479205437650691  0.5000000000000000  0.2914913943957060
  0.4977859974793759  0.0000000000000000  0.0784596334563048
  0.5025665391386553  0.5000000000000000  0.3338606960439563
  0.4994918423877408  0.0000000000000000  0.5797389039580665
  0.2522210800501554  0.5000000000000000  0.0458809771726649
  0.2479205437650691  0.0000000000000000  0.2914913943957060
  0.0015369088583910  0.0000000000000000  0.8379922821430270
  0.2467965255191942  0.5000000000000000  0.5393364605277711
  0.2491721994617961  0.0000000000000000  0.7922355819718589
  0.5015369088583910  0.5000000000000000  0.8379922821430270
  0.7467965255191942  0.0000000000000000  0.5393364605277711
  0.7491721994617961  0.5000000000000000  0.7922355819718589
  0.6875263723121066  0.0000000000000000  0.1747536107436147
  0.1856834955023601  0.0000000000000000  0.4210471512804617
  0.9369802842667099  0.0000000000000000  0.1356287851898372
  0.9376222929458606  0.5000000000000000  0.3864352937622328
  0.4382222703005141  0.0000000000000000  0.8873422885079378
  0.1875263723121066  0.5000000000000000  0.1747536107436147
  0.6856834955023601  0.5000000000000000  0.4210471512804617
  0.4369802842667099  0.5000000000000000  0.1356287851898372
  0.4376222929458606  0.0000000000000000  0.3864352937622328
  0.9382222703005141  0.5000000000000000  0.8873422885079378
  0.1945472097771130  0.0000000000000000  0.9374511424024448
  0.1748690766473615  0.5000000000000000  0.6750489795075296
  0.9470573615875963  0.0000000000000000  0.6332968189365857
  0.6945472097771130  0.5000000000000000  0.9374511424024448
  0.6748690766473615  0.0000000000000000  0.6750489795075296
  0.4470573615875963  0.5000000000000000  0.6332968189365857

  0.00000000E+00  0.00000000E+00  0.00000000E+00
  0.00000000E+00  0.00000000E+00  0.00000000E+00
  0.00000000E+00  0.00000000E+00  0.00000000E+00
  0.00000000E+00  0.00000000E+00  0.00000000E+00
  0.00000000E+00  0.00000000E+00  0.00000000E+00
  0.00000000E+00  0.00000000E+00  0.00000000E+00
  0.00000000E+00  0.00000000E+00  0.00000000E+00
  0.00000000E+00  0.00000000E+00  0.00000000E+00
  0.00000000E+00  0.00000000E+00  0.00000000E+00
  0.00000000E+00  0.00000000E+00  0.00000000E+00
  0.00000000E+00  0.00000000E+00  0.00000000E+00
  0.00000000E+00  0.00000000E+00  0.00000000E+00
  0.00000000E+00  0.00000000E+00  0.00000000E+00
  0.00000000E+00  0.00000000E+00  0.00000000E+00
  0.00000000E+00  0.00000000E+00  0.00000000E+00
  0.00000000E+00  0.00000000E+00  0.00000000E+00
  0.00000000E+00  0.00000000E+00  0.00000000E+00
  0.00000000E+00  0.00000000E+00  0.00000000E+00
  0.00000000E+00  0.00000000E+00  0.00000000E+00
  0.00000000E+00  0.00000000E+00  0.00000000E+00
  0.00000000E+00  0.00000000E+00  0.00000000E+00
  0.00000000E+00  0.00000000E+00  0.00000000E+00
  0.00000000E+00  0.00000000E+00  0.00000000E+00
  0.00000000E+00  0.00000000E+00  0.00000000E+00
  0.00000000E+00  0.00000000E+00  0.00000000E+00
  0.00000000E+00  0.00000000E+00  0.00000000E+00
  0.00000000E+00  0.00000000E+00  0.00000000E+00
  0.00000000E+00  0.00000000E+00  0.00000000E+00
  0.00000000E+00  0.00000000E+00  0.00000000E+00
  0.00000000E+00  0.00000000E+00  0.00000000E+00
  0.00000000E+00  0.00000000E+00  0.00000000E+00
  0.00000000E+00  0.00000000E+00  0.00000000E+00
