pyclupan: 5-3-0
   1.00000000000000
     0.0000000000000000   -2.0712526808915901    2.0712526808915901
     0.0000000000000000   -2.0712526808915901   -2.0712526808915901
    10.3750010843404699    2.0712526808915901    0.0000000000000000
   Ag   Au
     4     1
Direct
  0.6002413359778345  0.6002413359778345  0.2004826719556618
  0.2000066960752704  0.2000066960752704  0.4000133921505267
  0.7999933039247296  0.7999933039247296  0.5999866078494733
  0.3997586640221655  0.3997586640221655  0.7995173280443311
  0.0000000000000000  0.0000000000000000  0.0000000000000000

  0.00000000E+00  0.00000000E+00  0.00000000E+00
  0.00000000E+00  0.00000000E+00  0.00000000E+00
  0.00000000E+00  0.00000000E+00  0.00000000E+00
  0.00000000E+00  0.00000000E+00  0.00000000E+00
  0.00000000E+00  0.00000000E+00  0.00000000E+00
