pyclupan: 4-5-1
   1.00000000000000
     0.0000000000000000   -2.0744940519419752   -2.0744940519419748
     4.1518549502004030   -2.0740761869600584    2.0740761869600584
    -4.1518549502004030   -2.0740761869600584    2.0740761869600584
   Ag   Au
     1     3
Direct
  0.0000000000000000  0.5000000000000000  0.5000000000000000
  0.0000000000000000  0.0000000000000000  0.0000000000000000
  0.5000000000000000  0.5000000000000000  0.0000000000000000
  0.5000000000000000  0.0000000000000000  0.5000000000000000

  0.00000000E+00  0.00000000E+00  0.00000000E+00
  0.00000000E+00  0.00000000E+00  0.00000000E+00
  0.00000000E+00  0.00000000E+00  0.00000000E+00
  0.00000000E+00  0.00000000E+00  0.00000000E+00
