pyclupan: 4-7-33
1.0
   8.000000000000000 0.000000000000000 0.000000000000000
   0.000000000000000 8.000000000000000 0.000000000000000
   0.000000000000000 0.000000000000000 8.000000000000000
 Sr  Cu  O
 8  8  16
Direct
   0.750000000000000 0.000000000000000 0.000000000000000
   0.750000000000000 0.000000000000000 0.500000000000000
   0.750000000000000 0.500000000000000 0.000000000000000
   0.750000000000000 0.500000000000000 0.500000000000000
   0.250000000000000 0.500000000000000 0.000000000000000
   0.250000000000000 0.500000000000000 0.500000000000000
   0.250000000000000 0.000000000000000 0.000000000000000
   0.250000000000000 0.000000000000000 0.500000000000000
   0.000000000000000 0.250000000000000 0.750000000000000
   0.000000000000000 0.250000000000000 0.250000000000000
   0.500000000000000 0.250000000000000 0.750000000000000
   0.500000000000000 0.250000000000000 0.250000000000000
   0.500000000000000 0.750000000000000 0.750000000000000
   0.500000000000000 0.750000000000000 0.250000000000000
   0.000000000000000 0.750000000000000 0.750000000000000
   0.000000000000000 0.750000000000000 0.250000000000000
   0.500000000000000 0.500000000000000 0.750000000000000
   0.500000000000000 0.500000000000000 0.250000000000000
   0.750000000000000 0.750000000000000 0.750000000000000
   0.750000000000000 0.750000000000000 0.250000000000000
   0.750000000000000 0.250000000000000 0.750000000000000
   0.750000000000000 0.250000000000000 0.250000000000000
   0.000000000000000 0.250000000000000 0.500000000000000
   0.500000000000000 0.250000000000000 0.500000000000000
   0.000000000000000 0.000000000000000 0.750000000000000
   0.000000000000000 0.000000000000000 0.250000000000000
   0.250000000000000 0.250000000000000 0.750000000000000
   0.250000000000000 0.250000000000000 0.250000000000000
   0.250000000000000 0.750000000000000 0.750000000000000
   0.250000000000000 0.750000000000000 0.250000000000000
   0.500000000000000 0.750000000000000 0.500000000000000
   0.000000000000000 0.750000000000000 0.500000000000000
