pyclupan: 4-5-1432
   1.00000000000000
     7.4295577606032230    0.0000000000000000    0.0406316882075416
     0.0000000000000000    3.1198379346240750    0.0000000000000000
    -0.5463319294733301    0.0000000000000000    7.3671283926044158
   Si   Al   C    N
     2     6     2     6
Direct
  0.9192583599017965  0.5000000000000000  0.0858322206358011
  0.8255241667211379  0.5000000000000000  0.6748157894878233
  0.1690485401864805  0.0000000000000000  0.8328160637451205
  0.4149128127414130  0.5000000000000000  0.5802040624010374
  0.6674779778044808  0.0000000000000000  0.3360626899502606
  0.3314507819183703  0.5000000000000000  0.1625931804489795
  0.5807605310343504  0.0000000000000000  0.9100637673140923
  0.0833800662734703  0.0000000000000000  0.4134130767210848
  0.6136906515464631  0.5000000000000000  0.7671339210525474
  0.0951613990636559  0.5000000000000000  0.2626845160126763
  0.3561100032962727  0.0000000000000000  0.0183387006757982
  0.8579197964120482  0.0000000000000000  0.5402732858296204
  0.5274200156397555  0.5000000000000000  0.3493204665357297
  0.7820779450843247  0.0000000000000000  0.1039668168677608
  0.0086110125043248  0.5000000000000000  0.8566553221864126
  0.2671959398716623  0.0000000000000000  0.6058261201352622

  0.00000000E+00  0.00000000E+00  0.00000000E+00
  0.00000000E+00  0.00000000E+00  0.00000000E+00
  0.00000000E+00  0.00000000E+00  0.00000000E+00
  0.00000000E+00  0.00000000E+00  0.00000000E+00
  0.00000000E+00  0.00000000E+00  0.00000000E+00
  0.00000000E+00  0.00000000E+00  0.00000000E+00
  0.00000000E+00  0.00000000E+00  0.00000000E+00
  0.00000000E+00  0.00000000E+00  0.00000000E+00
  0.00000000E+00  0.00000000E+00  0.00000000E+00
  0.00000000E+00  0.00000000E+00  0.00000000E+00
  0.00000000E+00  0.00000000E+00  0.00000000E+00
  0.00000000E+00  0.00000000E+00  0.00000000E+00
  0.00000000E+00  0.00000000E+00  0.00000000E+00
  0.00000000E+00  0.00000000E+00  0.00000000E+00
  0.00000000E+00  0.00000000E+00  0.00000000E+00
  0.00000000E+00  0.00000000E+00  0.00000000E+00
