pyclupan: 4-4-40
1.0
   5.656854249492381 0.000000000000000 0.000000000000000
   0.000000000000000 6.928203230275509 0.000000000000000
   0.000000000000000 -2.309401076758503 6.531972647421807
 Sr  Cu  O
 4  4  8
Direct
   0.000000000000000 0.000000000000000 0.000000000000000
   0.500000000000000 0.750000000000000 0.250000000000000
   0.000000000000000 0.500000000000000 0.500000000000000
   0.500000000000000 0.250000000000000 0.750000000000000
   0.500000000000000 0.750000000000000 0.750000000000000
   0.000000000000000 0.500000000000000 0.000000000000000
   0.500000000000000 0.250000000000000 0.250000000000000
   0.000000000000000 0.000000000000000 0.500000000000000
   0.750000000000000 0.375000000000000 0.125000000000000
   0.250000000000000 0.125000000000000 0.375000000000000
   0.750000000000000 0.625000000000000 0.875000000000000
   0.750000000000000 0.125000000000000 0.375000000000000
   0.250000000000000 0.875000000000000 0.625000000000000
   0.000000000000000 0.750000000000000 0.250000000000000
   0.500000000000000 0.500000000000000 0.500000000000000
   0.000000000000000 0.250000000000000 0.750000000000000
