pyclupan: 4-1-253
   1.00000000000000
    11.5234976028220437    0.0000000000000000    0.1027770501764605
     0.0000000000000000    3.1105422930940643    0.0000000000000000
    -5.1345029580417512    0.0000000000000000    9.4289955116744117
   Si   Al   C    N
    12     4    12     4
Direct
  0.0004698922066666  0.5000000000000000  0.0790152894179670
  0.0013501678453807  0.0000000000000000  0.3346966518268246
  0.9982411753301648  0.5000000000000000  0.5788480631858022
  0.7433976781880602  0.0000000000000000  0.0404787509553159
  0.2491286884824433  0.5000000000000000  0.5450600480930348
  0.2528586571844258  0.0000000000000000  0.7954598952547514
  0.5004698922066666  0.0000000000000000  0.0790152894179670
  0.5013501678453807  0.5000000000000000  0.3346966518268246
  0.4982411753301648  0.0000000000000000  0.5788480631858022
  0.2433976781880602  0.5000000000000000  0.0404787509553159
  0.7491286884824433  0.0000000000000000  0.5450600480930348
  0.7528586571844258  0.5000000000000000  0.7954598952547514
  0.9997024230860561  0.0000000000000000  0.8347462075653240
  0.7510697025680813  0.5000000000000000  0.2897813201471777
  0.4997024230860561  0.5000000000000000  0.8347462075653240
  0.2510697025680813  0.0000000000000000  0.2897813201471777
  0.1992201207790600  0.0000000000000000  0.9339496459860968
  0.6806813217823731  0.0000000000000000  0.1716807115575207
  0.1859615030569373  0.5000000000000000  0.6766323965094756
  0.9486337824298161  0.5000000000000000  0.3837497574328026
  0.9304199498018022  0.0000000000000000  0.6199609518471192
  0.4327766260942880  0.0000000000000000  0.8908506844526229
  0.6992201207790600  0.5000000000000000  0.9339496459860968
  0.1806813217823731  0.5000000000000000  0.1716807115575207
  0.6859615030569373  0.0000000000000000  0.6766323965094756
  0.4486337824298161  0.0000000000000000  0.3837497574328026
  0.4304199498018022  0.5000000000000000  0.6199609518471192
  0.9327766260942880  0.5000000000000000  0.8908506844526229
  0.1844333927088471  0.0000000000000000  0.4320701680775940
  0.9416549184556047  0.0000000000000000  0.1430194576905777
  0.6844333927088471  0.5000000000000000  0.4320701680775940
  0.4416549184556047  0.5000000000000000  0.1430194576905777

  0.00000000E+00  0.00000000E+00  0.00000000E+00
  0.00000000E+00  0.00000000E+00  0.00000000E+00
  0.00000000E+00  0.00000000E+00  0.00000000E+00
  0.00000000E+00  0.00000000E+00  0.00000000E+00
  0.00000000E+00  0.00000000E+00  0.00000000E+00
  0.00000000E+00  0.00000000E+00  0.00000000E+00
  0.00000000E+00  0.00000000E+00  0.00000000E+00
  0.00000000E+00  0.00000000E+00  0.00000000E+00
  0.00000000E+00  0.00000000E+00  0.00000000E+00
  0.00000000E+00  0.00000000E+00  0.00000000E+00
  0.00000000E+00  0.00000000E+00  0.00000000E+00
  0.00000000E+00  0.00000000E+00  0.00000000E+00
  0.00000000E+00  0.00000000E+00  0.00000000E+00
  0.00000000E+00  0.00000000E+00  0.00000000E+00
  0.00000000E+00  0.00000000E+00  0.00000000E+00
  0.00000000E+00  0.00000000E+00  0.00000000E+00
  0.00000000E+00  0.00000000E+00  0.00000000E+00
  0.00000000E+00  0.00000000E+00  0.00000000E+00
  0.00000000E+00  0.00000000E+00  0.00000000E+00
  0.00000000E+00  0.00000000E+00  0.00000000E+00
  0.00000000E+00  0.00000000E+00  0.00000000E+00
  0.00000000E+00  0.00000000E+00  0.00000000E+00
  0.00000000E+00  0.00000000E+00  0.00000000E+00
  0.00000000E+00  0.00000000E+00  0.00000000E+00
  0.00000000E+00  0.00000000E+00  0.00000000E+00
  0.00000000E+00  0.00000000E+00  0.00000000E+00
  0.00000000E+00  0.00000000E+00  0.00000000E+00
  0.00000000E+00  0.00000000E+00  0.00000000E+00
  0.00000000E+00  0.00000000E+00  0.00000000E+00
  0.00000000E+00  0.00000000E+00  0.00000000E+00
  0.00000000E+00  0.00000000E+00  0.00000000E+00
  0.00000000E+00  0.00000000E+00  0.00000000E+00
