pyclupan: 5-0-27
   1.00000000000000
     0.0000000000000000    2.0561126889235091    2.0561126889235091
    -2.0561126889235091    0.0000000000000000   -2.0561126889235091
    -5.9551267359261431   -8.0112394248496503    5.9551267359261431
   Cu   Ag   Au
     1     1     3
Direct
  0.8003662452304994  0.4001831226152461  0.2005493678457526
  0.3961208900333943  0.1980604450167007  0.5941813350501022
  0.0123526025931824  0.0061763012965912  0.0185289038897736
  0.2020455763889473  0.6010227881944772  0.8030683645834173
  0.5891146857539766  0.7945573428769848  0.3836720286309543

  0.00000000E+00  0.00000000E+00  0.00000000E+00
  0.00000000E+00  0.00000000E+00  0.00000000E+00
  0.00000000E+00  0.00000000E+00  0.00000000E+00
  0.00000000E+00  0.00000000E+00  0.00000000E+00
  0.00000000E+00  0.00000000E+00  0.00000000E+00
