pyclupan: 6-2-3
   1.00000000000000
     0.0000000000000000    2.0575074926467685    2.0575074926467685
    -0.0019063702288531   -4.1311029898794214    4.1311029898794214
     6.2881218767663700    0.0054334269768859   -2.0629409196236543
   Ag   Au
     3     3
Direct
  0.3327685034702839  0.6664686934822868  0.6655370069405677
  0.6666554779305542  0.3335903022158817  0.3333109558611014
  0.3336074779634828  0.1668097428442152  0.6672149559269585
  0.0003756156022163  0.0005111754004119  0.0007512312044398
  0.6681802610929140  0.8337702605709012  0.3363605221858421
  0.9984126639405417  0.4988498254863032  0.9968253278810906

  0.00000000E+00  0.00000000E+00  0.00000000E+00
  0.00000000E+00  0.00000000E+00  0.00000000E+00
  0.00000000E+00  0.00000000E+00  0.00000000E+00
  0.00000000E+00  0.00000000E+00  0.00000000E+00
  0.00000000E+00  0.00000000E+00  0.00000000E+00
  0.00000000E+00  0.00000000E+00  0.00000000E+00
