pyclupan: 6-5-2
   1.00000000000000
     0.0000000000000000    2.0696462411554957   -2.0696462411554957
     0.0000000000000000   -2.0696462411554957   -2.0696462411554957
   -12.4976181310417971    0.0000000000000000    0.0000000000000000
   Ag   Au
     4     2
Direct
  0.0000000000000000  0.0000000000000000  0.6662963181606187
  0.5000000000000000  0.5000000000000000  0.4998678521890483
  0.0000000000000000  0.0000000000000000  0.3334654811442874
  0.5000000000000000  0.5000000000000000  0.1670370151727099
  0.0000000000000000  0.0000000000000000  0.0013807488331139
  0.5000000000000000  0.5000000000000000  0.8319525845002218

  0.00000000E+00  0.00000000E+00  0.00000000E+00
  0.00000000E+00  0.00000000E+00  0.00000000E+00
  0.00000000E+00  0.00000000E+00  0.00000000E+00
  0.00000000E+00  0.00000000E+00  0.00000000E+00
  0.00000000E+00  0.00000000E+00  0.00000000E+00
  0.00000000E+00  0.00000000E+00  0.00000000E+00
