pyclupan: 6-4-3
   1.00000000000000
     0.0000000000000000   -2.0607854377789421   -2.0607854377789416
     2.0868773266684641    4.1401659610230643   -2.0793805232441218
     6.2633876718253303   -2.0803011751671256    4.1410866129460695
   Ag   Au
     3     3
Direct
  0.6661695431883956  0.9987695479071306  0.3335695384696677
  0.3331438738349775  0.9995967206279914  0.6666910270419564
  0.1672360163162097  0.5014077525138347  0.8330642801185988
  0.9999645711886700  0.0011818969512021  0.9987472454261379
  0.8337488951157184  0.5009592053083480  0.1665385849230816
  0.4997371003560289  0.4980848766914932  0.5013893240205718

  0.00000000E+00  0.00000000E+00  0.00000000E+00
  0.00000000E+00  0.00000000E+00  0.00000000E+00
  0.00000000E+00  0.00000000E+00  0.00000000E+00
  0.00000000E+00  0.00000000E+00  0.00000000E+00
  0.00000000E+00  0.00000000E+00  0.00000000E+00
  0.00000000E+00  0.00000000E+00  0.00000000E+00
