pyclupan: 6-4-60
   1.00000000000000
     0.0000000000000000   -2.0556565720666327   -2.0556565720666327
     1.9683967018067094    4.1195364357242941   -2.0638798636576627
     6.0146123499142075   -2.1026045873068187    4.1582611593734526
   Cu   Ag   Au
     1     3     2
Direct
  0.1707610134752287  0.5053887009475559  0.8361333260029156
  0.8204917008715640  0.4843950016588323  0.1565884000842814
  0.5125838137425163  0.5121640726667778  0.5130035548182548
  0.3502050436459427  0.0277360705888370  0.6726740167030414
  0.9810075137956886  0.9739229143532526  0.9880921132381246
  0.6649509144690597  0.9963932397847444  0.3335085891533751

  0.00000000E+00  0.00000000E+00  0.00000000E+00
  0.00000000E+00  0.00000000E+00  0.00000000E+00
  0.00000000E+00  0.00000000E+00  0.00000000E+00
  0.00000000E+00  0.00000000E+00  0.00000000E+00
  0.00000000E+00  0.00000000E+00  0.00000000E+00
  0.00000000E+00  0.00000000E+00  0.00000000E+00
