pyclupan: 5-2-8
   1.00000000000000
     0.0000000000000000   -2.0299794575641847   -2.0299794575641847
    -1.8400427626222111    4.1325647335932700   -2.1025852760290853
     5.5206844121606311    2.0565928562518385   -0.0266133986876536
   Cu   Ag
     2     3
Direct
  0.6170598074120832  0.4340641845937512  0.8000554302303939
  0.1829401925879210  0.7659358154062446  0.5999445697696046
  0.9948036224814771  0.0192649704110082  0.9703422745519603
  0.8051963775185129  0.1807350295889947  0.4296577254480383
  0.3999999999999986  0.6000000000000014  0.2000000000000028

  0.00000000E+00  0.00000000E+00  0.00000000E+00
  0.00000000E+00  0.00000000E+00  0.00000000E+00
  0.00000000E+00  0.00000000E+00  0.00000000E+00
  0.00000000E+00  0.00000000E+00  0.00000000E+00
  0.00000000E+00  0.00000000E+00  0.00000000E+00
