pyclupan: 6-2-10
   1.00000000000000
     0.0000000000000000    1.9665290559333977    1.9665290559333977
    -0.0508904534688887   -3.8932194289581585    3.8932194289581585
     5.5438410043533253    0.0321338743644383   -1.9986629302978365
   Cu   Au
     4     2
Direct
  0.3348628552653992  0.6434458692704936  0.6697257105307841
  0.9964334598175668  0.4985129837923381  0.9928669196351336
  0.6702332068490975  0.3348203495409976  0.3404664136982021
  0.3318038114012722  0.1898874640628350  0.6636076228025445
  0.9913743659832690  0.0088545441424017  0.9827487319665309
  0.6752923006833953  0.8244787891909340  0.3505846013668048

  0.00000000E+00  0.00000000E+00  0.00000000E+00
  0.00000000E+00  0.00000000E+00  0.00000000E+00
  0.00000000E+00  0.00000000E+00  0.00000000E+00
  0.00000000E+00  0.00000000E+00  0.00000000E+00
  0.00000000E+00  0.00000000E+00  0.00000000E+00
  0.00000000E+00  0.00000000E+00  0.00000000E+00
