pyclupan: 5-0-1
   1.00000000000000
     0.0000000000000000    2.0707397870577813    2.0707397870577808
    -2.0707397870577813    0.0000000000000000   -2.0707397870577808
    -6.2269219693505242   -8.2976617564083046    6.2269219693505242
   Ag   Au
     3     2
Direct
  0.2000000000000028  0.6000000000000014  0.7999999999999972
  0.5994305413885783  0.7997152706942856  0.3991458120828639
  0.8005694586114203  0.4002847293057101  0.2008541879171375
  0.9998685100282501  0.9999342550141250  0.9998027650423751
  0.4001314899717485  0.2000657449858778  0.6001972349576263

  0.00000000E+00  0.00000000E+00  0.00000000E+00
  0.00000000E+00  0.00000000E+00  0.00000000E+00
  0.00000000E+00  0.00000000E+00  0.00000000E+00
  0.00000000E+00  0.00000000E+00  0.00000000E+00
  0.00000000E+00  0.00000000E+00  0.00000000E+00
