pyclupan: 3-1-11
1.0
   5.656854249492381 0.000000000000000 0.000000000000000
   0.000000000000000 4.000000000000000 0.000000000000000
   -2.828427124746189 0.000000000000000 8.485281374238571
 Sr  Cu  O
 3  3  6
Direct
   0.833333333333333 0.000000000000000 0.666666666666667
   0.500000000000000 0.000000000000000 0.000000000000000
   0.166666666666667 0.000000000000000 0.333333333333333
   0.333333333333333 0.500000000000000 0.666666666666667
   0.000000000000000 0.500000000000000 0.000000000000000
   0.666666666666667 0.500000000000000 0.333333333333333
   0.166666666666667 0.500000000000000 0.833333333333333
   0.833333333333333 0.500000000000000 0.166666666666667
   0.000000000000000 0.000000000000000 0.000000000000000
   0.666666666666667 0.500000000000000 0.833333333333333
   0.333333333333333 0.500000000000000 0.166666666666667
   0.000000000000000 0.500000000000000 0.500000000000000
