pyclupan: 6-3-2
   1.00000000000000
     0.0000000000000000   -1.9521746449516397   -1.9521746449516395
    -3.9169969981349926    1.9535202172963204   -1.9535202172963206
     3.7337130399617919    3.7240009962781158   -3.7240009962781158
   Cu   Ag   Au
     4     1     1
Direct
  0.5000000000000000  0.8344539721405155  0.3465911207682311
  0.0000000000000000  0.6679708491667640  0.6497705382376253
  0.0000000000000000  0.3320291508332360  0.3502294617623747
  0.5000000000000000  0.1655460278594845  0.6534088792317689
  0.5000000000000000  0.5000000000000000  0.0000000000000000
  0.0000000000000000  0.0000000000000000  0.0000000000000000

  0.00000000E+00  0.00000000E+00  0.00000000E+00
  0.00000000E+00  0.00000000E+00  0.00000000E+00
  0.00000000E+00  0.00000000E+00  0.00000000E+00
  0.00000000E+00  0.00000000E+00  0.00000000E+00
  0.00000000E+00  0.00000000E+00  0.00000000E+00
  0.00000000E+00  0.00000000E+00  0.00000000E+00
