pyclupan: 4-3-22
1.0
   5.656854249492381 0.000000000000000 0.000000000000000
   2.828427124746190 4.898979485566357 0.000000000000000
   2.828427124746189 1.632993161855451 9.237604307034012
 Sr  Cu  O
 4  4  8
Direct
   0.000000000000000 0.000000000000000 0.000000000000000
   0.750000000000000 0.750000000000000 0.750000000000000
   0.500000000000000 0.500000000000000 0.500000000000000
   0.250000000000000 0.250000000000000 0.250000000000000
   0.625000000000000 0.625000000000000 0.125000000000000
   0.375000000000000 0.375000000000000 0.875000000000000
   0.125000000000000 0.125000000000000 0.625000000000000
   0.875000000000000 0.875000000000000 0.375000000000000
   0.250000000000000 0.750000000000000 0.750000000000000
   0.000000000000000 0.500000000000000 0.500000000000000
   0.750000000000000 0.250000000000000 0.750000000000000
   0.500000000000000 0.000000000000000 0.500000000000000
   0.250000000000000 0.750000000000000 0.250000000000000
   0.500000000000000 0.500000000000000 0.000000000000000
   0.250000000000000 0.250000000000000 0.750000000000000
   0.750000000000000 0.750000000000000 0.250000000000000
