pyclupan: 6-3-3
   1.00000000000000
     0.0000000000000000   -2.0661070522177303   -2.0661070522177298
    -4.1482477867513596    2.0674375168107431   -2.0674375168107431
     4.1683925999658529    4.1550022634552093   -4.1550022634552093
   Ag   Au
     3     3
Direct
  0.0000000000000000  0.6663896728087195  0.6647694430622835
  0.0000000000000000  0.3333388867394191  0.3346629092326552
  0.5000000000000000  0.1666810035258592  0.6667712991514492
  0.0000000000000000  0.0000096195488410  0.9992554074253732
  0.5000000000000000  0.8334302247775227  0.3374358735117582
  0.5000000000000000  0.5001505925996312  0.9971050676164808

  0.00000000E+00  0.00000000E+00  0.00000000E+00
  0.00000000E+00  0.00000000E+00  0.00000000E+00
  0.00000000E+00  0.00000000E+00  0.00000000E+00
  0.00000000E+00  0.00000000E+00  0.00000000E+00
  0.00000000E+00  0.00000000E+00  0.00000000E+00
  0.00000000E+00  0.00000000E+00  0.00000000E+00
