pyclupan: 3-0-16
1.0
   4.000000000000000 0.000000000000000 0.000000000000000
   0.000000000000000 4.000000000000000 0.000000000000000
   0.000000000000000 0.000000000000000 12.000000000000000
 Sr  Cu  O
 3  3  6
Direct
   0.000000000000000 0.000000000000000 0.000000000000000
   0.000000000000000 0.000000000000000 0.333333333333333
   0.000000000000000 0.000000000000000 0.666666666666667
   0.500000000000000 0.500000000000000 0.166666666666667
   0.500000000000000 0.500000000000000 0.500000000000000
   0.500000000000000 0.500000000000000 0.833333333333333
   0.500000000000000 0.500000000000000 0.666666666666667
   0.000000000000000 0.500000000000000 0.166666666666667
   0.000000000000000 0.500000000000000 0.833333333333333
   0.500000000000000 0.000000000000000 0.166666666666667
   0.500000000000000 0.000000000000000 0.500000000000000
   0.500000000000000 0.000000000000000 0.833333333333333
