pyclupan: 4-0-442
   1.00000000000000
     3.2115744445172898    0.0000000000000000    0.0000000000000000
    -1.6057872222586449    2.7813050550968716    0.0000000000000000
     0.0000000000000000    0.0000000000000000   18.7469093745094071
   Si   Al   C    N
     4     4     4     4
Direct
  0.3333333333333357  0.6666666666666643  0.4801055819869475
  0.3333333333333357  0.6666666666666643  0.7446496288273323
  0.6666666666666643  0.3333333333333357  0.1327177047123769
  0.6666666666666643  0.3333333333333357  0.6087976610822921
  0.3333333333333357  0.6666666666666643  0.9953654246415979
  0.3333333333333357  0.6666666666666643  0.2327562929353775
  0.6666666666666643  0.3333333333333357  0.3515603334317419
  0.6666666666666643  0.3333333333333357  0.8696257898475110
  0.3333333333333357  0.6666666666666643  0.1136346643826300
  0.3333333333333357  0.6666666666666643  0.8411255547631811
  0.6666666666666643  0.3333333333333357  0.2437106228058354
  0.6666666666666643  0.3333333333333357  0.7065657921889397
  0.3333333333333357  0.6666666666666643  0.3807698846955532
  0.3333333333333357  0.6666666666666643  0.5819358850667271
  0.6666666666666643  0.3333333333333357  0.4886926771029394
  0.6666666666666643  0.3333333333333357  0.9779865015290241

  0.00000000E+00  0.00000000E+00  0.00000000E+00
  0.00000000E+00  0.00000000E+00  0.00000000E+00
  0.00000000E+00  0.00000000E+00  0.00000000E+00
  0.00000000E+00  0.00000000E+00  0.00000000E+00
  0.00000000E+00  0.00000000E+00  0.00000000E+00
  0.00000000E+00  0.00000000E+00  0.00000000E+00
  0.00000000E+00  0.00000000E+00  0.00000000E+00
  0.00000000E+00  0.00000000E+00  0.00000000E+00
  0.00000000E+00  0.00000000E+00  0.00000000E+00
  0.00000000E+00  0.00000000E+00  0.00000000E+00
  0.00000000E+00  0.00000000E+00  0.00000000E+00
  0.00000000E+00  0.00000000E+00  0.00000000E+00
  0.00000000E+00  0.00000000E+00  0.00000000E+00
  0.00000000E+00  0.00000000E+00  0.00000000E+00
  0.00000000E+00  0.00000000E+00  0.00000000E+00
  0.00000000E+00  0.00000000E+00  0.00000000E+00
