pyclupan: 6-1-48
   1.00000000000000
     0.0000000000000000    2.0243189894153670    2.0243189894153670
     3.8149149726509335    0.0000000000000002    0.0000000000000002
     0.0000000000000001    6.2551926820632531   -6.2551926820632531
   Cu   Ag   Au
     2     1     3
Direct
  0.0000000000000000  0.0000000000000000  0.6751978573382900
  0.5000000000000000  0.5000000000000000  0.8247079136329774
  0.0000000000000000  0.0000000000000000  0.3417794162442647
  0.0000000000000000  0.0000000000000000  0.9717047237227945
  0.5000000000000000  0.5000000000000000  0.1593099718241220
  0.5000000000000000  0.5000000000000000  0.5273001172375444

  0.00000000E+00  0.00000000E+00  0.00000000E+00
  0.00000000E+00  0.00000000E+00  0.00000000E+00
  0.00000000E+00  0.00000000E+00  0.00000000E+00
  0.00000000E+00  0.00000000E+00  0.00000000E+00
  0.00000000E+00  0.00000000E+00  0.00000000E+00
  0.00000000E+00  0.00000000E+00  0.00000000E+00
