pyclupan: 6-8-60
   1.00000000000000
    -2.0532441631996967    2.0532441631996967    0.0000000000000000
    -2.0301795361132560   -2.0301795361132564    4.0343558670973243
     6.1371701573210089    4.0839259941213131    2.0520474469031531
   Cu   Ag   Au
     1     3     2
Direct
  0.8337556288895058  0.1629520798586128  0.6675112577790046
  0.1717197059042803  0.8435512307477850  0.3434394118085677
  0.4965090684443041  0.4965112925833353  0.9930181368886082
  0.6672252134201955  0.3326689703933781  0.3344504268403981
  0.9988845447617649  0.0040952808755961  0.9977690895235298
  0.3319058385799494  0.6602211455412927  0.6638116771598987

  0.00000000E+00  0.00000000E+00  0.00000000E+00
  0.00000000E+00  0.00000000E+00  0.00000000E+00
  0.00000000E+00  0.00000000E+00  0.00000000E+00
  0.00000000E+00  0.00000000E+00  0.00000000E+00
  0.00000000E+00  0.00000000E+00  0.00000000E+00
  0.00000000E+00  0.00000000E+00  0.00000000E+00
