pyclupan: 5-4-2
   1.00000000000000
    -4.1485518028787842    0.0000000000000000    0.0000000000000000
    -2.0742759014393921   -4.1450845008630406   -2.0743524412930441
     2.0742759014393921   -2.0734152425869641    4.1504506125864120
   Ag   Au
     2     3
Direct
  0.7999696408588619  0.7999473321293493  0.3998866138470660
  0.4000303591411338  0.4000526678706464  0.2001133861529354
  0.0003671672336978  0.9998745607320672  0.0006088951994769
  0.6000000000000014  0.6000000000000014  0.7999999999999972
  0.1996328327663051  0.2001254392679357  0.5993911048005245

  0.00000000E+00  0.00000000E+00  0.00000000E+00
  0.00000000E+00  0.00000000E+00  0.00000000E+00
  0.00000000E+00  0.00000000E+00  0.00000000E+00
  0.00000000E+00  0.00000000E+00  0.00000000E+00
  0.00000000E+00  0.00000000E+00  0.00000000E+00
