pyclupan: 6-4-7
   1.00000000000000
     0.0000000000000000   -2.0645376542537544   -2.0645376542537544
     2.0837947959667811    4.1474096498374484   -2.0828719955836936
     6.2580706966109725   -2.0851057083536224    4.1496433626073772
   Ag   Au
     1     5
Direct
  0.1666666666666643  0.5000000000000000  0.8333333333333357
  0.0005965540363420  0.0020041494283660  0.9991889586443108
  0.8340868495768063  0.5027294080951847  0.1654442910584208
  0.6666666666666643  0.0000000000000000  0.3333333333333357
  0.4992464837565294  0.4972705919048153  0.5012223756082435
  0.3327367792969937  0.9979958505716340  0.6674777080223535

  0.00000000E+00  0.00000000E+00  0.00000000E+00
  0.00000000E+00  0.00000000E+00  0.00000000E+00
  0.00000000E+00  0.00000000E+00  0.00000000E+00
  0.00000000E+00  0.00000000E+00  0.00000000E+00
  0.00000000E+00  0.00000000E+00  0.00000000E+00
  0.00000000E+00  0.00000000E+00  0.00000000E+00
