pyclupan: 5-4-0
   1.00000000000000
    -4.1484837172138578    0.0000000000000000    0.0000000000000000
    -2.0742418586069289   -4.1477843337958875   -2.0738921673782844
     2.0742418586069289   -2.0738921673782844    4.1477843337958875
   Ag   Au
     4     1
Direct
  0.5999732997779930  0.5998517913763521  0.7997983909323310
  0.1998250911543451  0.2002016090676690  0.5998517913763521
  0.8001749088456549  0.7997983909323310  0.4001482086236479
  0.4000267002220070  0.4001482086236479  0.2002016090676690
  0.0000000000000000  0.0000000000000000  0.0000000000000000

  0.00000000E+00  0.00000000E+00  0.00000000E+00
  0.00000000E+00  0.00000000E+00  0.00000000E+00
  0.00000000E+00  0.00000000E+00  0.00000000E+00
  0.00000000E+00  0.00000000E+00  0.00000000E+00
  0.00000000E+00  0.00000000E+00  0.00000000E+00
