pyclupan: 6-3-24
   1.00000000000000
     0.0000000000000000   -2.0027486953588576   -2.0027486953588576
    -3.5562886951911934    2.0819411064452114   -2.0819411064452109
     3.6014358752058255    4.2043973447304417   -4.2043973447304417
   Cu   Ag   Au
     3     2     1
Direct
  0.5000000000000000  0.5308959298268192  0.0337748099238837
  0.0000000000000000  0.3333333333333357  0.3333333333333357
  0.5000000000000000  0.1357707368398451  0.6328918567427806
  0.0000000000000000  0.0517486220679189  0.9705897940942378
  0.0000000000000000  0.6149180445987454  0.6960768725724265
  0.5000000000000000  0.8333333333333357  0.3333333333333357

  0.00000000E+00  0.00000000E+00  0.00000000E+00
  0.00000000E+00  0.00000000E+00  0.00000000E+00
  0.00000000E+00  0.00000000E+00  0.00000000E+00
  0.00000000E+00  0.00000000E+00  0.00000000E+00
  0.00000000E+00  0.00000000E+00  0.00000000E+00
  0.00000000E+00  0.00000000E+00  0.00000000E+00
