pyclupan: 5-2-4
   1.00000000000000
     0.0000000000000000   -2.0599231330652885   -2.0599231330652885
    -2.0835878382655730    4.1417911072073492   -2.0818679741420625
     6.2704861762395323    2.0737920393718308   -0.0138689063065423
   Ag   Au
     2     3
Direct
  0.3994501275316722  0.6004041268696199  0.1984961281937316
  0.2005498724683292  0.7995958731303787  0.6015038718062726
  0.0013704811876778  0.0003982407859908  0.0023427215893577
  0.7999999999999972  0.2000000000000028  0.3999999999999986
  0.5986295188123236  0.3996017592140078  0.7976572784106395

  0.00000000E+00  0.00000000E+00  0.00000000E+00
  0.00000000E+00  0.00000000E+00  0.00000000E+00
  0.00000000E+00  0.00000000E+00  0.00000000E+00
  0.00000000E+00  0.00000000E+00  0.00000000E+00
  0.00000000E+00  0.00000000E+00  0.00000000E+00
