pyclupan: 4-2-2
   1.00000000000000
     0.0000000000000000   -1.9955336595621453   -1.9955336595621451
    -1.8586954044549147   -1.8572233347151901    3.8527569942773363
    -4.0235889063619137    2.0052274741934748   -2.0052274741934752
   Cu   Ag   Au
     2     1     1
Direct
  0.2513603053003592  0.5027206106007256  0.7518468571236170
  0.7486396946996408  0.4972793893992744  0.2481531428763830
  0.5000000000000000  0.0000000000000000  0.5000000000000000
  0.0000000000000000  0.0000000000000000  0.0000000000000000

  0.00000000E+00  0.00000000E+00  0.00000000E+00
  0.00000000E+00  0.00000000E+00  0.00000000E+00
  0.00000000E+00  0.00000000E+00  0.00000000E+00
  0.00000000E+00  0.00000000E+00  0.00000000E+00
