pyclupan: 6-8-14
   1.00000000000000
    -2.0092795743696885    2.0092795743696876    0.0000000000000000
    -1.9733899710238270   -1.9733899710238270    3.9296588080894788
     5.8462141919458253    3.8369346175761376    1.8736870318775625
   Cu   Ag   Au
     3     1     2
Direct
  0.3280201354408163  0.6450552166007455  0.6560402708816255
  0.6731356000082869  0.3435114763497182  0.3462712000165808
  0.8318299153684592  0.1800559464160543  0.6636598307369113
  0.9956873840075815  0.9946214873543369  0.9913747680151559
  0.1771451694731070  0.8467161129958782  0.3542903389462211
  0.4941817957017491  0.4900397602832669  0.9883635914035054

  0.00000000E+00  0.00000000E+00  0.00000000E+00
  0.00000000E+00  0.00000000E+00  0.00000000E+00
  0.00000000E+00  0.00000000E+00  0.00000000E+00
  0.00000000E+00  0.00000000E+00  0.00000000E+00
  0.00000000E+00  0.00000000E+00  0.00000000E+00
  0.00000000E+00  0.00000000E+00  0.00000000E+00
