pyclupan: 6-0-69
   1.00000000000000
     2.0491811249673098    0.0000000000000000    2.0491811249673098
     0.0000000000000000   -2.0491811249673098   -2.0491811249673098
     8.1198478249914672    8.1198478249914654   -8.1198478249914654
   Cu   Ag   Au
     1     1     4
Direct
  0.6666666666666643  0.3333333333333357  0.8333343252696466
  0.3333333333333357  0.6666666666666643  0.6816425534766353
  0.0000000000000000  0.0000000000000000  0.9834994313967940
  0.3333333333333357  0.6666666666666643  0.1589727742556732
  0.6666666666666643  0.3333333333333357  0.3333987197709547
  0.0000000000000000  0.0000000000000000  0.5091521958303034

  0.00000000E+00  0.00000000E+00  0.00000000E+00
  0.00000000E+00  0.00000000E+00  0.00000000E+00
  0.00000000E+00  0.00000000E+00  0.00000000E+00
  0.00000000E+00  0.00000000E+00  0.00000000E+00
  0.00000000E+00  0.00000000E+00  0.00000000E+00
  0.00000000E+00  0.00000000E+00  0.00000000E+00
