pyclupan: 4-1-50
1.0
   5.656854249492381 0.000000000000000 0.000000000000000
   0.000000000000000 4.000000000000000 0.000000000000000
   0.000000000000001 0.000000000000000 11.313708498984761
 Sr  Cu  O
 4  4  8
Direct
   0.000000000000000 0.000000000000000 0.000000000000000
   0.500000000000000 0.000000000000000 0.250000000000000
   0.000000000000000 0.000000000000000 0.500000000000000
   0.500000000000000 0.000000000000000 0.750000000000000
   0.500000000000000 0.500000000000000 0.000000000000000
   0.000000000000000 0.500000000000000 0.250000000000000
   0.500000000000000 0.500000000000000 0.500000000000000
   0.000000000000000 0.500000000000000 0.750000000000000
   0.750000000000000 0.500000000000000 0.375000000000000
   0.250000000000000 0.500000000000000 0.625000000000000
   0.500000000000000 0.000000000000000 0.000000000000000
   0.000000000000000 0.000000000000000 0.250000000000000
   0.000000000000000 0.000000000000000 0.750000000000000
   0.250000000000000 0.500000000000000 0.375000000000000
   0.750000000000000 0.500000000000000 0.625000000000000
   0.250000000000000 0.500000000000000 0.875000000000000
