pyclupan: 4-2-601
   1.00000000000000
    20.9072689270697580    0.0000000000000000    0.0474078364228568
     0.0000000000000000    3.1137124866685211    0.0000000000000000
    -1.4145241481559792    0.0000000000000000    5.2259702430562678
   Si   Al   C    N
    10     6    10     6
Direct
  0.0036055787628797  0.5000000000000000  0.8336738529625762
  0.7526463425438905  0.5000000000000000  0.5912382857982763
  0.6255640825533320  0.5000000000000000  0.7969779045632492
  0.8750822764571424  0.0000000000000000  0.5367505451122412
  0.6253837843362930  0.0000000000000000  0.2859535138595106
  0.5036055787628797  0.0000000000000000  0.8336738529625762
  0.2526463425438905  0.0000000000000000  0.5912382857982763
  0.1255640825533320  0.0000000000000000  0.7969779045632492
  0.3750822764571424  0.5000000000000000  0.5367505451122412
  0.1253837843362930  0.5000000000000000  0.2859535138595106
  0.0016476487006329  0.0000000000000000  0.3360235513188670
  0.7501358304047514  0.0000000000000000  0.0788778258871403
  0.8716101509038907  0.5000000000000000  0.0449559780054116
  0.5016476487006329  0.5000000000000000  0.3360235513188670
  0.2501358304047514  0.5000000000000000  0.0788778258871403
  0.3716101509038907  0.0000000000000000  0.0449559780054116
  0.6499815409253742  0.0000000000000000  0.9853531224009942
  0.6526704403162285  0.5000000000000000  0.4831657702920396
  0.7789773733855228  0.5000000000000000  0.9327770993229052
  0.5302032921249591  0.5000000000000000  0.7096011086259892
  0.7849378353867351  0.0000000000000000  0.4618574948130458
  0.1499815409253742  0.5000000000000000  0.9853531224009942
  0.1526704403162285  0.0000000000000000  0.4831657702920396
  0.2789773733855228  0.0000000000000000  0.9327770993229052
  0.0302032921249591  0.0000000000000000  0.7096011086259892
  0.2849378353867351  0.5000000000000000  0.4618574948130458
  0.9073283751718435  0.0000000000000000  0.2575150355513784
  0.9109712098544023  0.5000000000000000  0.7329593521278923
  0.5292542381721219  0.0000000000000000  0.1823195593584828
  0.4073283751718435  0.5000000000000000  0.2575150355513784
  0.4109712098544023  0.0000000000000000  0.7329593521278923
  0.0292542381721219  0.5000000000000000  0.1823195593584828

  0.00000000E+00  0.00000000E+00  0.00000000E+00
  0.00000000E+00  0.00000000E+00  0.00000000E+00
  0.00000000E+00  0.00000000E+00  0.00000000E+00
  0.00000000E+00  0.00000000E+00  0.00000000E+00
  0.00000000E+00  0.00000000E+00  0.00000000E+00
  0.00000000E+00  0.00000000E+00  0.00000000E+00
  0.00000000E+00  0.00000000E+00  0.00000000E+00
  0.00000000E+00  0.00000000E+00  0.00000000E+00
  0.00000000E+00  0.00000000E+00  0.00000000E+00
  0.00000000E+00  0.00000000E+00  0.00000000E+00
  0.00000000E+00  0.00000000E+00  0.00000000E+00
  0.00000000E+00  0.00000000E+00  0.00000000E+00
  0.00000000E+00  0.00000000E+00  0.00000000E+00
  0.00000000E+00  0.00000000E+00  0.00000000E+00
  0.00000000E+00  0.00000000E+00  0.00000000E+00
  0.00000000E+00  0.00000000E+00  0.00000000E+00
  0.00000000E+00  0.00000000E+00  0.00000000E+00
  0.00000000E+00  0.00000000E+00  0.00000000E+00
  0.00000000E+00  0.00000000E+00  0.00000000E+00
  0.00000000E+00  0.00000000E+00  0.00000000E+00
  0.00000000E+00  0.00000000E+00  0.00000000E+00
  0.00000000E+00  0.00000000E+00  0.00000000E+00
  0.00000000E+00  0.00000000E+00  0.00000000E+00
  0.00000000E+00  0.00000000E+00  0.00000000E+00
  0.00000000E+00  0.00000000E+00  0.00000000E+00
  0.00000000E+00  0.00000000E+00  0.00000000E+00
  0.00000000E+00  0.00000000E+00  0.00000000E+00
  0.00000000E+00  0.00000000E+00  0.00000000E+00
  0.00000000E+00  0.00000000E+00  0.00000000E+00
  0.00000000E+00  0.00000000E+00  0.00000000E+00
  0.00000000E+00  0.00000000E+00  0.00000000E+00
  0.00000000E+00  0.00000000E+00  0.00000000E+00
