pyclupan: 4-3-2
1.0
   5.656854249492381 0.000000000000000 0.000000000000000
   -2.828427124746190 4.898979485566357 0.000000000000000
   0.000000000000000 0.000000000000000 27.712812921102035
 Sr  Cu  O
 12  12  27
Direct
   0.000000000000000 0.000000000000000 0.250000000000000
   0.000000000000000 0.000000000000000 0.000000000000000
   0.666666666666667 0.333333333333333 0.083333333333333
   0.333333333333333 0.666666666666667 0.166666666666667
   0.666666666666667 0.333333333333333 0.583333333333333
   0.666666666666667 0.333333333333333 0.333333333333333
   0.333333333333333 0.666666666666667 0.416666666666667
   -0.000000000000000 -0.000000000000000 0.500000000000000
   0.333333333333333 0.666666666666667 0.916666666666667
   0.333333333333333 0.666666666666667 0.666666666666667
   0.000000000000000 0.000000000000000 0.750000000000000
   0.666666666666667 0.333333333333333 0.833333333333333
   0.666666666666667 0.333333333333333 0.208333333333333
   0.666666666666667 0.333333333333333 0.958333333333333
   0.333333333333333 0.666666666666667 0.041666666666667
   0.000000000000000 0.000000000000000 0.125000000000000
   0.333333333333333 0.666666666666667 0.541666666666667
   0.333333333333333 0.666666666666667 0.291666666666667
   0.000000000000000 0.000000000000000 0.375000000000000
   0.666666666666667 0.333333333333333 0.458333333333333
   0.000000000000000 0.000000000000000 0.875000000000000
   0.000000000000000 0.000000000000000 0.625000000000000
   0.666666666666667 0.333333333333333 0.708333333333333
   0.333333333333333 0.666666666666667 0.791666666666667
   0.000000000000000 0.500000000000000 0.250000000000000
   0.000000000000000 0.500000000000000 0.000000000000000
   0.666666666666667 0.833333333333333 0.083333333333333
   0.500000000000000 0.500000000000000 0.250000000000000
   0.500000000000000 0.500000000000000 0.000000000000000
   0.166666666666667 0.833333333333333 0.083333333333333
   0.500000000000000 0.000000000000000 0.250000000000000
   0.500000000000000 0.000000000000000 0.000000000000000
   0.166666666666667 0.333333333333333 0.083333333333333
   0.666666666666667 0.833333333333333 0.583333333333333
   0.666666666666667 0.833333333333333 0.333333333333333
   0.333333333333333 0.166666666666667 0.416666666666667
   0.166666666666667 0.833333333333333 0.583333333333333
   0.166666666666667 0.833333333333333 0.333333333333333
   0.833333333333333 0.166666666666667 0.416666666666667
   0.166666666666667 0.333333333333333 0.583333333333333
   0.166666666666667 0.333333333333333 0.333333333333333
   0.833333333333333 0.666666666666667 0.416666666666667
   0.333333333333333 0.166666666666667 0.916666666666667
   0.333333333333333 0.166666666666667 0.666666666666667
   0.000000000000000 0.500000000000000 0.750000000000000
   0.833333333333333 0.166666666666667 0.916666666666667
   0.833333333333333 0.166666666666667 0.666666666666667
   0.500000000000000 0.500000000000000 0.750000000000000
   0.833333333333333 0.666666666666667 0.916666666666667
   0.833333333333333 0.666666666666667 0.666666666666667
   0.500000000000000 0.000000000000000 0.750000000000000
