pyclupan: 6-8-4
   1.00000000000000
    -2.0593386256899313    2.0593386256899313    0.0000000000000000
    -2.0711443392563522   -2.0711443392563522    4.1735634380480002
     6.2132284690598425    4.1538898433699112    2.0924894883055520
   Ag   Au
     3     3
Direct
  0.5000577192554232  0.4996846198316973  0.0001154385108322
  0.6666666666666643  0.3333333333333357  0.3333333333333357
  0.8332756140779125  0.1669820468349670  0.6665512281558321
  0.0001827013685656  0.0014699213423768  0.0003654027371240
  0.1666666666666643  0.8333333333333357  0.3333333333333357
  0.3331506319647701  0.6651967453242875  0.6663012639295403

  0.00000000E+00  0.00000000E+00  0.00000000E+00
  0.00000000E+00  0.00000000E+00  0.00000000E+00
  0.00000000E+00  0.00000000E+00  0.00000000E+00
  0.00000000E+00  0.00000000E+00  0.00000000E+00
  0.00000000E+00  0.00000000E+00  0.00000000E+00
  0.00000000E+00  0.00000000E+00  0.00000000E+00
