pyclupan: 3-1-173
   1.00000000000000
    11.4379823797366758    0.0000000000000000   -0.0663794460883856
     0.0000000000000000    3.1144811420257184    0.0000000000000000
    -1.8736356995358443    0.0000000000000000    7.1725589842301485
   Si   Al   C    N
     6     6     6     6
Direct
  0.2208905398095808  0.0000000000000000  0.4422366571173200
  0.2782202278642814  0.0000000000000000  0.0590145967758247
  0.4449381384490323  0.5000000000000000  0.3920115578871730
  0.7208905398095808  0.5000000000000000  0.4422366571173200
  0.7782202278642814  0.5000000000000000  0.0590145967758247
  0.9449381384490323  0.0000000000000000  0.3920115578871730
  0.3899808195753138  0.5000000000000000  0.7800290195517903
  0.0600327353398669  0.5000000000000000  0.1051017239475414
  0.1106801959418036  0.5000000000000000  0.7197016976452488
  0.8899808195753138  0.0000000000000000  0.7800290195517903
  0.5600327353398669  0.0000000000000000  0.1051017239475414
  0.6106801959418036  0.0000000000000000  0.7197016976452488
  0.2648828571871817  0.5000000000000000  0.9269349617871399
  0.0934845030217346  0.0000000000000000  0.5507178616160786
  0.3154884506689868  0.5000000000000000  0.4985336698488823
  0.7648828571871817  0.0000000000000000  0.9269349617871399
  0.5934845030217346  0.5000000000000000  0.5507178616160786
  0.8154884506689868  0.0000000000000000  0.4985336698488823
  0.4271389744041514  0.0000000000000000  0.2377593461625267
  0.1581436959551183  0.0000000000000000  0.1869434612194851
  0.4861188617829484  0.0000000000000000  0.8510154464409823
  0.9271389744041514  0.5000000000000000  0.2377593461625267
  0.6581436959551183  0.5000000000000000  0.1869434612194851
  0.9861188617829484  0.5000000000000000  0.8510154464409823

  0.00000000E+00  0.00000000E+00  0.00000000E+00
  0.00000000E+00  0.00000000E+00  0.00000000E+00
  0.00000000E+00  0.00000000E+00  0.00000000E+00
  0.00000000E+00  0.00000000E+00  0.00000000E+00
  0.00000000E+00  0.00000000E+00  0.00000000E+00
  0.00000000E+00  0.00000000E+00  0.00000000E+00
  0.00000000E+00  0.00000000E+00  0.00000000E+00
  0.00000000E+00  0.00000000E+00  0.00000000E+00
  0.00000000E+00  0.00000000E+00  0.00000000E+00
  0.00000000E+00  0.00000000E+00  0.00000000E+00
  0.00000000E+00  0.00000000E+00  0.00000000E+00
  0.00000000E+00  0.00000000E+00  0.00000000E+00
  0.00000000E+00  0.00000000E+00  0.00000000E+00
  0.00000000E+00  0.00000000E+00  0.00000000E+00
  0.00000000E+00  0.00000000E+00  0.00000000E+00
  0.00000000E+00  0.00000000E+00  0.00000000E+00
  0.00000000E+00  0.00000000E+00  0.00000000E+00
  0.00000000E+00  0.00000000E+00  0.00000000E+00
  0.00000000E+00  0.00000000E+00  0.00000000E+00
  0.00000000E+00  0.00000000E+00  0.00000000E+00
  0.00000000E+00  0.00000000E+00  0.00000000E+00
  0.00000000E+00  0.00000000E+00  0.00000000E+00
  0.00000000E+00  0.00000000E+00  0.00000000E+00
  0.00000000E+00  0.00000000E+00  0.00000000E+00
