pyclupan: 3-0-108
   1.00000000000000
     3.2752830321429061    0.0000000000000000    0.0000000000000000
    -1.6376415160714530    2.8364783104198819    0.0000000000000000
     0.0000000000000000    0.0000000000000000   13.2937894084972932
   Si   Al   C    N
     3     3     3     3
Direct
  0.3333333333333357  0.6666666666666643  0.6500309431298490
  0.6666666666666643  0.3333333333333357  0.4590125952825517
  0.6666666666666643  0.3333333333333357  0.8212340521531232
  0.3333333333333357  0.6666666666666643  0.9864389930836097
  0.3333333333333357  0.6666666666666643  0.2957278774535723
  0.6666666666666643  0.3333333333333357  0.1417551614859676
  0.3333333333333357  0.6666666666666643  0.5057970004370915
  0.6666666666666643  0.3333333333333357  0.3178739401779040
  0.6666666666666643  0.3333333333333357  0.9621287195514583
  0.3333333333333357  0.6666666666666643  0.1407439875038250
  0.3333333333333357  0.6666666666666643  0.7951926752603100
  0.6666666666666643  0.3333333333333357  0.6740640544807661

  0.00000000E+00  0.00000000E+00  0.00000000E+00
  0.00000000E+00  0.00000000E+00  0.00000000E+00
  0.00000000E+00  0.00000000E+00  0.00000000E+00
  0.00000000E+00  0.00000000E+00  0.00000000E+00
  0.00000000E+00  0.00000000E+00  0.00000000E+00
  0.00000000E+00  0.00000000E+00  0.00000000E+00
  0.00000000E+00  0.00000000E+00  0.00000000E+00
  0.00000000E+00  0.00000000E+00  0.00000000E+00
  0.00000000E+00  0.00000000E+00  0.00000000E+00
  0.00000000E+00  0.00000000E+00  0.00000000E+00
  0.00000000E+00  0.00000000E+00  0.00000000E+00
  0.00000000E+00  0.00000000E+00  0.00000000E+00
