generated by clupan
1.0
  4.000000000  0.0000000000  0.0000000000
  0.0000000000  4.000000000  0.0000000000
  0.0000000000  0.0000000000  4.000000000
 Ag  Au
  2  2
Direct
  0.000000000 0.000000000 0.000000000
  0.000000000 0.500000000 0.500000000
  0.500000000 0.000000000 0.500000000
  0.500000000 0.500000000 0.000000000
