pyclupan: 4-2-10
1.0
   8.000000000000000 0.000000000000000 0.000000000000000
   0.000000000000000 4.000000000000000 0.000000000000000
   -4.000000000000000 0.000000000000000 8.000000000000000
 Sr  Cu  O
 4  4  8
Direct
   0.875000000000000 0.000000000000000 0.750000000000000
   0.625000000000000 0.000000000000000 0.250000000000000
   0.375000000000000 0.000000000000000 0.750000000000000
   0.125000000000000 0.000000000000000 0.250000000000000
   0.000000000000000 0.500000000000000 0.500000000000000
   0.750000000000000 0.500000000000000 0.000000000000000
   0.500000000000000 0.500000000000000 0.500000000000000
   0.250000000000000 0.500000000000000 0.000000000000000
   0.125000000000000 0.500000000000000 0.750000000000000
   0.875000000000000 0.500000000000000 0.250000000000000
   0.625000000000000 0.500000000000000 0.750000000000000
   0.375000000000000 0.500000000000000 0.250000000000000
   0.750000000000000 0.000000000000000 0.000000000000000
   0.500000000000000 0.000000000000000 0.500000000000000
   0.250000000000000 0.000000000000000 0.000000000000000
   0.000000000000000 0.500000000000000 0.000000000000000
