pyclupan: 4-6-185
   1.00000000000000
     5.9435397186605883   -0.0281538139202456    0.0060775538318027
    -2.6304148264170641    5.3199280877369821    0.0094804513915687
    -1.6509991125717212   -2.6335249048419764    5.3672741794823597
   Si   Al   C    N
     5     3     5     3
Direct
  0.6570745146074870  0.6542462107379734  0.3253612375457422
  0.6586441623814139  0.6661441270504724  0.8331804781605783
  0.5871480988180906  0.0868407778712736  0.1704429934533351
  0.5817428322729441  0.0834822044987575  0.6645854350500713
  0.0811320123198556  0.5835789715196498  0.6640790097437730
  0.1718657947178812  0.1724601602305853  0.3342266611087652
  0.1693094756822973  0.1723551579807676  0.8378141235838612
  0.0852575204886037  0.5844869335783827  0.1680932036913916
  0.3599841982097729  0.9673957654432144  0.8283612060738790
  0.8490887957244055  0.4753562258556840  0.3419042239837751
  0.8408725739037450  0.4736085612357499  0.8163715746909190
  0.7620334283245924  0.8868780239234582  0.1650994378726267
  0.2869394452647001  0.4049549451556729  0.1739015896703222
  0.3757856945617988  0.9871359510483586  0.3441282051809011
  0.7556943487357302  0.8886373949331769  0.6600740339024043
  0.2774271039866818  0.4124385889368156  0.6723765862876476

  0.00000000E+00  0.00000000E+00  0.00000000E+00
  0.00000000E+00  0.00000000E+00  0.00000000E+00
  0.00000000E+00  0.00000000E+00  0.00000000E+00
  0.00000000E+00  0.00000000E+00  0.00000000E+00
  0.00000000E+00  0.00000000E+00  0.00000000E+00
  0.00000000E+00  0.00000000E+00  0.00000000E+00
  0.00000000E+00  0.00000000E+00  0.00000000E+00
  0.00000000E+00  0.00000000E+00  0.00000000E+00
  0.00000000E+00  0.00000000E+00  0.00000000E+00
  0.00000000E+00  0.00000000E+00  0.00000000E+00
  0.00000000E+00  0.00000000E+00  0.00000000E+00
  0.00000000E+00  0.00000000E+00  0.00000000E+00
  0.00000000E+00  0.00000000E+00  0.00000000E+00
  0.00000000E+00  0.00000000E+00  0.00000000E+00
  0.00000000E+00  0.00000000E+00  0.00000000E+00
  0.00000000E+00  0.00000000E+00  0.00000000E+00
