pyclupan: 4-3-661
   1.00000000000000
     5.3742397952089140   -0.0196700359961147   -0.0072988736799498
    -2.7064446500033501    5.3054290571570668    0.0178091799418104
    -0.0012659412176458   -1.8680214764331553    5.9775392422748679
   Si   Al   C    N
     4     4     4     4
Direct
  0.8385916694370508  0.0097210845074187  0.7524841921572971
  0.3283658342936420  0.9955426116090038  0.4999973936535866
  0.4022053939343238  0.5013563239903149  0.8758297395858605
  0.4091441853183255  0.5022406303211397  0.3755988122381311
  0.8404919092265288  0.0032231985068094  0.2505070180188298
  0.3353206047415327  0.9986396728769975  0.9992696105080725
  0.9181099543756801  0.4964191050058488  0.1215026437512279
  0.9193730299612639  0.5013822530497265  0.6271409527238987
  0.1489020668819734  0.6169828511587596  0.9041013720266378
  0.1554164232868729  0.6287500301815854  0.4067174001246343
  0.2282158853656995  0.1315305009071253  0.7711574319122505
  0.2559641561789050  0.1415982822170889  0.2979724785234552
  0.6289951251177186  0.6148314658890044  0.1528151668051265
  0.6430750878120577  0.6404382067256051  0.6599132642997958
  0.7364622444246720  0.1109004986100004  0.0153390015926860
  0.7113664296437747  0.1064432844435643  0.5396535220785097

  0.00000000E+00  0.00000000E+00  0.00000000E+00
  0.00000000E+00  0.00000000E+00  0.00000000E+00
  0.00000000E+00  0.00000000E+00  0.00000000E+00
  0.00000000E+00  0.00000000E+00  0.00000000E+00
  0.00000000E+00  0.00000000E+00  0.00000000E+00
  0.00000000E+00  0.00000000E+00  0.00000000E+00
  0.00000000E+00  0.00000000E+00  0.00000000E+00
  0.00000000E+00  0.00000000E+00  0.00000000E+00
  0.00000000E+00  0.00000000E+00  0.00000000E+00
  0.00000000E+00  0.00000000E+00  0.00000000E+00
  0.00000000E+00  0.00000000E+00  0.00000000E+00
  0.00000000E+00  0.00000000E+00  0.00000000E+00
  0.00000000E+00  0.00000000E+00  0.00000000E+00
  0.00000000E+00  0.00000000E+00  0.00000000E+00
  0.00000000E+00  0.00000000E+00  0.00000000E+00
  0.00000000E+00  0.00000000E+00  0.00000000E+00
