pyclupan: 3-3-13
   1.00000000000000
    16.2014095888605496    0.0000000000000000   -0.0342427123861261
     0.0000000000000000    3.0996307471791602    0.0000000000000000
    -0.0107628086314077    0.0000000000000000    5.0682947995848222
   Si   Al   C    N
     8     4     8     4
Direct
  0.2224445196655154  0.0000000000000000  0.0065601665888977
  0.0545015569102887  0.5000000000000000  0.0037120050412440
  0.4455963783569814  0.0000000000000000  0.4888305528027672
  0.2770539204230218  0.5000000000000000  0.4979627519839696
  0.7224445196655154  0.5000000000000000  0.0065601665888977
  0.5545015569102887  0.0000000000000000  0.0037120050412440
  0.9455963783569814  0.5000000000000000  0.4888305528027672
  0.7770539204230218  0.0000000000000000  0.4979627519839696
  0.3884486145034955  0.5000000000000000  0.0071268187075617
  0.1109138772440801  0.0000000000000000  0.5015354842926953
  0.8884486145034955  0.0000000000000000  0.0071268187075617
  0.6109138772440801  0.5000000000000000  0.5015354842926953
  0.2292554055530758  0.0000000000000000  0.6338051750788338
  0.4492486131700986  0.0000000000000000  0.1323201263429397
  0.2736255028590548  0.5000000000000000  0.1326870580629773
  0.1105558078077635  0.0000000000000000  0.1020116913718070
  0.7292554055530758  0.5000000000000000  0.6338051750788338
  0.9492486131700986  0.5000000000000000  0.1323201263429397
  0.7736255028590548  0.0000000000000000  0.1326870580629773
  0.6105558078077635  0.5000000000000000  0.1020116913718070
  0.3913623524351877  0.5000000000000000  0.6097984710906843
  0.0469934510714367  0.5000000000000000  0.6336496986356224
  0.8913623524351877  0.0000000000000000  0.6097984710906843
  0.5469934510714367  0.0000000000000000  0.6336496986356224

  0.00000000E+00  0.00000000E+00  0.00000000E+00
  0.00000000E+00  0.00000000E+00  0.00000000E+00
  0.00000000E+00  0.00000000E+00  0.00000000E+00
  0.00000000E+00  0.00000000E+00  0.00000000E+00
  0.00000000E+00  0.00000000E+00  0.00000000E+00
  0.00000000E+00  0.00000000E+00  0.00000000E+00
  0.00000000E+00  0.00000000E+00  0.00000000E+00
  0.00000000E+00  0.00000000E+00  0.00000000E+00
  0.00000000E+00  0.00000000E+00  0.00000000E+00
  0.00000000E+00  0.00000000E+00  0.00000000E+00
  0.00000000E+00  0.00000000E+00  0.00000000E+00
  0.00000000E+00  0.00000000E+00  0.00000000E+00
  0.00000000E+00  0.00000000E+00  0.00000000E+00
  0.00000000E+00  0.00000000E+00  0.00000000E+00
  0.00000000E+00  0.00000000E+00  0.00000000E+00
  0.00000000E+00  0.00000000E+00  0.00000000E+00
  0.00000000E+00  0.00000000E+00  0.00000000E+00
  0.00000000E+00  0.00000000E+00  0.00000000E+00
  0.00000000E+00  0.00000000E+00  0.00000000E+00
  0.00000000E+00  0.00000000E+00  0.00000000E+00
  0.00000000E+00  0.00000000E+00  0.00000000E+00
  0.00000000E+00  0.00000000E+00  0.00000000E+00
  0.00000000E+00  0.00000000E+00  0.00000000E+00
  0.00000000E+00  0.00000000E+00  0.00000000E+00
