pyclupan: 4-3-1
   1.00000000000000
     0.0000000000000000   -1.9749494144599680   -1.9749494144599680
     0.0000000000000000    1.9749494144599680   -1.9749494144599680
     6.9413471123786676    0.0000000000000000    0.0000000000000000
   Cu   Au
     3     1
Direct
  0.5000000000000000  0.5000000000000000  0.2740919504615817
  0.0000000000000000  0.0000000000000000  0.5000000000000000
  0.5000000000000000  0.5000000000000000  0.7259080495384183
  0.0000000000000000  0.0000000000000000  0.0000000000000000

  0.00000000E+00  0.00000000E+00  0.00000000E+00
  0.00000000E+00  0.00000000E+00  0.00000000E+00
  0.00000000E+00  0.00000000E+00  0.00000000E+00
  0.00000000E+00  0.00000000E+00  0.00000000E+00
