pyclupan: 3-0-49
   1.00000000000000
     3.2045944710285585   -0.0000000000000002    0.0000000000000000
    -1.6022972355142793    2.7752602207378869    0.0000000000000000
     0.0000000000000000    0.0000000000000000   14.1842823014308230
   Si   Al   C    N
     3     3     3     3
Direct
  0.3333333333333357  0.6666666666666643  0.6585571198356632
  0.6666666666666643  0.3333333333333357  0.1819294993580485
  0.6666666666666643  0.3333333333333357  0.4708727451413566
  0.3333333333333357  0.6666666666666643  0.9999076981713415
  0.3333333333333357  0.6666666666666643  0.3236626571831778
  0.6666666666666643  0.3333333333333357  0.8261266767861528
  0.3333333333333357  0.6666666666666643  0.1478585880553069
  0.3333333333333357  0.6666666666666643  0.7810330168861128
  0.6666666666666643  0.3333333333333357  0.3209189746285759
  0.3333333333333357  0.6666666666666643  0.4689712846639225
  0.6666666666666643  0.3333333333333357  0.6064660051150810
  0.6666666666666643  0.3333333333333357  0.9636957341752748

  0.00000000E+00  0.00000000E+00  0.00000000E+00
  0.00000000E+00  0.00000000E+00  0.00000000E+00
  0.00000000E+00  0.00000000E+00  0.00000000E+00
  0.00000000E+00  0.00000000E+00  0.00000000E+00
  0.00000000E+00  0.00000000E+00  0.00000000E+00
  0.00000000E+00  0.00000000E+00  0.00000000E+00
  0.00000000E+00  0.00000000E+00  0.00000000E+00
  0.00000000E+00  0.00000000E+00  0.00000000E+00
  0.00000000E+00  0.00000000E+00  0.00000000E+00
  0.00000000E+00  0.00000000E+00  0.00000000E+00
  0.00000000E+00  0.00000000E+00  0.00000000E+00
  0.00000000E+00  0.00000000E+00  0.00000000E+00
