pyclupan: 6-0-45
   1.00000000000000
     2.0288034689635852    0.0000000000000000    2.0288034689635852
     0.0000000000000000   -2.0288034689635852   -2.0288034689635852
     7.8369465075497429    7.8369465075497429   -7.8369465075497429
   Cu   Ag   Au
     2     2     2
Direct
  0.3333333333333357  0.6666666666666643  0.6800517964768389
  0.6666666666666643  0.3333333333333357  0.8199482035231611
  0.3333333333333357  0.6666666666666643  0.1613512492682077
  0.6666666666666643  0.3333333333333357  0.3386487507317923
  0.0000000000000000  0.0000000000000000  0.9796330553157517
  0.0000000000000000  0.0000000000000000  0.5203669446842483

  0.00000000E+00  0.00000000E+00  0.00000000E+00
  0.00000000E+00  0.00000000E+00  0.00000000E+00
  0.00000000E+00  0.00000000E+00  0.00000000E+00
  0.00000000E+00  0.00000000E+00  0.00000000E+00
  0.00000000E+00  0.00000000E+00  0.00000000E+00
  0.00000000E+00  0.00000000E+00  0.00000000E+00
