pyclupan: 4-6-327
   1.00000000000000
     5.8889630818033822   -0.0568935369055924    0.0256315327439313
    -2.6318459631460360    5.3459164001570176    0.0195401649060631
    -1.6050445937287028   -2.6130678635752669    5.4051328339366167
   Si   Al   C    N
     4     4     4     4
Direct
  0.6601669089957269  0.6623448959159717  0.3323461875596152
  0.6623928508361487  0.6680515431639549  0.8299389781743685
  0.5812895748777223  0.0764215773911516  0.6571926702756343
  0.0786880269198633  0.5897992124288152  0.6685752123977551
  0.1706780922406708  0.1686809957702593  0.3326956285147773
  0.1708450327298792  0.1713544670494258  0.8320803505903811
  0.5737346211539460  0.0867141536152332  0.1717825256863037
  0.0940197089422270  0.5858607852437743  0.1703813807756305
  0.3583123194763473  0.9791332832470445  0.3521982299952668
  0.8378376484428074  0.4717555708972299  0.8237008843359135
  0.7654996753641399  0.8871177923164737  0.6612191940854757
  0.2935010115472849  0.3976673113916931  0.1670227493781695
  0.3555228922019609  0.9629614007378322  0.8199886632856064
  0.8633107049097148  0.4913901119149529  0.3512637595471588
  0.7611762623525635  0.8774400005732303  0.1568996367529323
  0.2730246690090041  0.4233068983429433  0.6727139486450255

  0.00000000E+00  0.00000000E+00  0.00000000E+00
  0.00000000E+00  0.00000000E+00  0.00000000E+00
  0.00000000E+00  0.00000000E+00  0.00000000E+00
  0.00000000E+00  0.00000000E+00  0.00000000E+00
  0.00000000E+00  0.00000000E+00  0.00000000E+00
  0.00000000E+00  0.00000000E+00  0.00000000E+00
  0.00000000E+00  0.00000000E+00  0.00000000E+00
  0.00000000E+00  0.00000000E+00  0.00000000E+00
  0.00000000E+00  0.00000000E+00  0.00000000E+00
  0.00000000E+00  0.00000000E+00  0.00000000E+00
  0.00000000E+00  0.00000000E+00  0.00000000E+00
  0.00000000E+00  0.00000000E+00  0.00000000E+00
  0.00000000E+00  0.00000000E+00  0.00000000E+00
  0.00000000E+00  0.00000000E+00  0.00000000E+00
  0.00000000E+00  0.00000000E+00  0.00000000E+00
  0.00000000E+00  0.00000000E+00  0.00000000E+00
