pyclupan: 6-7-5
   1.00000000000000
    -2.0753364982189773   -4.1514690809057928   -2.0753364982189773
    -4.1508144744355082    2.0754891449576585    2.0759687671323248
     2.0759687671323248    2.0754891449576580   -4.1508144744355082
   Ag   Au
     2     4
Direct
  0.5000000000000000  0.5000644449061866  0.4999355550938134
  0.5000000000000000  0.1666022217604777  0.8333977782395223
  0.0000000000000000  0.0001866865721283  0.9998133134278717
  0.5000000000000000  0.8333333333333357  0.1666666666666643
  0.0000000000000000  0.6664799800945360  0.3335200199054640
  0.0000000000000000  0.3333333333333357  0.6666666666666643

  0.00000000E+00  0.00000000E+00  0.00000000E+00
  0.00000000E+00  0.00000000E+00  0.00000000E+00
  0.00000000E+00  0.00000000E+00  0.00000000E+00
  0.00000000E+00  0.00000000E+00  0.00000000E+00
  0.00000000E+00  0.00000000E+00  0.00000000E+00
  0.00000000E+00  0.00000000E+00  0.00000000E+00
