pyclupan: 4-3-12
1.0
   9.797958971132712 0.000000000000000 0.000000000000000
   0.000000000000000 5.656854249492381 0.000000000000000
   -3.265986323710904 0.000000000000000 9.237604307034012
 Sr  Cu  O
 8  8  16
Direct
   0.250000000000000 0.750000000000000 0.000000000000000
   0.500000000000000 0.750000000000000 0.750000000000000
   0.250000000000000 0.250000000000000 0.500000000000000
   0.000000000000000 0.750000000000000 0.250000000000000
   0.750000000000000 0.250000000000000 0.000000000000000
   0.000000000000000 0.250000000000000 0.750000000000000
   0.750000000000000 0.750000000000000 0.500000000000000
   0.500000000000000 0.250000000000000 0.250000000000000
   0.125000000000000 0.250000000000000 0.125000000000000
   0.375000000000000 0.250000000000000 0.875000000000000
   0.125000000000000 0.750000000000000 0.625000000000000
   0.375000000000000 0.750000000000000 0.375000000000000
   0.625000000000000 0.750000000000000 0.125000000000000
   0.875000000000000 0.750000000000000 0.875000000000000
   0.625000000000000 0.250000000000000 0.625000000000000
   0.875000000000000 0.250000000000000 0.375000000000000
   0.250000000000000 0.250000000000000 0.000000000000000
   0.250000000000000 0.750000000000000 0.500000000000000
   0.250000000000000 0.000000000000000 0.750000000000000
   0.500000000000000 0.000000000000000 0.500000000000000
   0.250000000000000 0.500000000000000 0.250000000000000
   0.000000000000000 0.500000000000000 0.000000000000000
   0.250000000000000 0.500000000000000 0.750000000000000
   0.250000000000000 0.000000000000000 0.250000000000000
   0.750000000000000 0.750000000000000 0.000000000000000
   0.750000000000000 0.250000000000000 0.500000000000000
   0.750000000000000 0.500000000000000 0.750000000000000
   0.000000000000000 0.500000000000000 0.500000000000000
   0.750000000000000 0.000000000000000 0.250000000000000
   0.500000000000000 0.000000000000000 0.000000000000000
   0.750000000000000 0.000000000000000 0.750000000000000
   0.750000000000000 0.500000000000000 0.250000000000000
