pyclupan: 6-3-21
   1.00000000000000
     0.0000000000000000   -2.0219621955330584   -2.0219621955330584
    -4.0781512971040463    2.0289451181956268   -2.0289451181956268
     3.9267480466423716    3.9068756676736975   -3.9068756676736980
   Cu   Ag   Au
     2     2     2
Direct
  0.0000000000000000  0.6674976796719463  0.6642176993132409
  0.5000000000000000  0.1658356536613823  0.6691156340200877
  0.5000000000000000  0.5009549701776095  0.9852191790065490
  0.0000000000000000  0.3323783631557262  0.3481141543267938
  0.0000000000000000  0.9996398841688787  0.9818595787718536
  0.5000000000000000  0.8336934491644570  0.3514737545614821

  0.00000000E+00  0.00000000E+00  0.00000000E+00
  0.00000000E+00  0.00000000E+00  0.00000000E+00
  0.00000000E+00  0.00000000E+00  0.00000000E+00
  0.00000000E+00  0.00000000E+00  0.00000000E+00
  0.00000000E+00  0.00000000E+00  0.00000000E+00
  0.00000000E+00  0.00000000E+00  0.00000000E+00
