pyclupan: 3-3-118
   1.00000000000000
    16.2859522444187164    0.0000000000000000   -0.0990558340389739
     0.0000000000000000    3.1180842231502375    0.0000000000000000
    -0.0309574217616446    0.0000000000000000    5.0330086571263450
   Si   Al   C    N
     4     8     4     8
Direct
  0.0515472103605745  0.5000000000000000  0.9973536463820807
  0.2789265137318253  0.5000000000000000  0.4998868409554831
  0.5515472103605745  0.0000000000000000  0.9973536463820807
  0.7789265137318253  0.0000000000000000  0.4998868409554831
  0.3893532001389701  0.5000000000000000  0.0014440054781488
  0.2243712556435113  0.0000000000000000  0.0067856019374730
  0.4420075234594663  0.0000000000000000  0.5035289344423930
  0.1116162801843572  0.0000000000000000  0.5062782608062761
  0.8893532001389701  0.0000000000000000  0.0014440054781488
  0.7243712556435113  0.5000000000000000  0.0067856019374730
  0.9420075234594663  0.5000000000000000  0.5035289344423930
  0.6116162801843572  0.5000000000000000  0.5062782608062761
  0.2279479036551137  0.0000000000000000  0.6118851850271412
  0.4497142703056696  0.0000000000000000  0.1167267316968008
  0.7279479036551137  0.5000000000000000  0.6118851850271412
  0.9497142703056696  0.5000000000000000  0.1167267316968008
  0.3834049148021634  0.5000000000000000  0.6154348937038918
  0.0556638511498022  0.5000000000000000  0.6399472344879982
  0.2777958018036557  0.5000000000000000  0.1402045265467606
  0.1076512747649048  0.0000000000000000  0.1105241385355527
  0.8834049148021634  0.0000000000000000  0.6154348937038918
  0.5556638511498022  0.0000000000000000  0.6399472344879982
  0.7777958018036557  0.0000000000000000  0.1402045265467606
  0.6076512747649048  0.5000000000000000  0.1105241385355527

  0.00000000E+00  0.00000000E+00  0.00000000E+00
  0.00000000E+00  0.00000000E+00  0.00000000E+00
  0.00000000E+00  0.00000000E+00  0.00000000E+00
  0.00000000E+00  0.00000000E+00  0.00000000E+00
  0.00000000E+00  0.00000000E+00  0.00000000E+00
  0.00000000E+00  0.00000000E+00  0.00000000E+00
  0.00000000E+00  0.00000000E+00  0.00000000E+00
  0.00000000E+00  0.00000000E+00  0.00000000E+00
  0.00000000E+00  0.00000000E+00  0.00000000E+00
  0.00000000E+00  0.00000000E+00  0.00000000E+00
  0.00000000E+00  0.00000000E+00  0.00000000E+00
  0.00000000E+00  0.00000000E+00  0.00000000E+00
  0.00000000E+00  0.00000000E+00  0.00000000E+00
  0.00000000E+00  0.00000000E+00  0.00000000E+00
  0.00000000E+00  0.00000000E+00  0.00000000E+00
  0.00000000E+00  0.00000000E+00  0.00000000E+00
  0.00000000E+00  0.00000000E+00  0.00000000E+00
  0.00000000E+00  0.00000000E+00  0.00000000E+00
  0.00000000E+00  0.00000000E+00  0.00000000E+00
  0.00000000E+00  0.00000000E+00  0.00000000E+00
  0.00000000E+00  0.00000000E+00  0.00000000E+00
  0.00000000E+00  0.00000000E+00  0.00000000E+00
  0.00000000E+00  0.00000000E+00  0.00000000E+00
  0.00000000E+00  0.00000000E+00  0.00000000E+00
