pyclupan: 5-2-5
   1.00000000000000
     0.0000000000000000   -2.0626326916756028   -2.0626326916756028
    -2.0855628554236110    4.1433620938596167   -2.0807294021840126
     6.2673020241300632    2.0722012945555135   -0.0095686028799110
   Ag   Au
     1     4
Direct
  0.2000000000000028  0.7999999999999972  0.6000000000000014
  0.9994816068202539  0.9983425467024034  0.0006206669380973
  0.8023985190230789  0.2029709689050634  0.4018260691411086
  0.5976014809769197  0.3970290310949380  0.7981739308588871
  0.4005183931797447  0.6016574532975980  0.1993793330619056

  0.00000000E+00  0.00000000E+00  0.00000000E+00
  0.00000000E+00  0.00000000E+00  0.00000000E+00
  0.00000000E+00  0.00000000E+00  0.00000000E+00
  0.00000000E+00  0.00000000E+00  0.00000000E+00
  0.00000000E+00  0.00000000E+00  0.00000000E+00
