pyclupan: 3-2-2
1.0
   5.656854249492381 0.000000000000000 0.000000000000000
   -2.828427124746190 4.898979485566357 0.000000000000000
   0.000000000000000 0.000000000000000 6.928203230275509
 Sr  Cu  O
 3  3  6
Direct
   0.333333333333333 0.666666666666667 0.333333333333333
   0.666666666666667 0.333333333333333 0.666666666666667
   0.000000000000000 0.000000000000000 0.000000000000000
   0.666666666666667 0.333333333333333 0.166666666666666
   0.000000000000000 0.000000000000000 0.500000000000000
   0.333333333333333 0.666666666666667 0.833333333333333
   0.833333333333333 0.666666666666667 0.333333333333333
   0.166666666666667 0.333333333333333 0.666666666666667
   0.333333333333333 0.166666666666667 0.333333333333333
   0.666666666666667 0.833333333333333 0.666666666666667
   0.833333333333333 0.166666666666667 0.333333333333333
   0.166666666666667 0.833333333333333 0.666666666666667
