pyclupan: 6-9-40
   1.00000000000000
     3.9191612503639321    0.0000000000000000    0.0000000000000000
     0.0000000000000000    0.0000000000000000   -4.0533066981218253
     0.0000000000000000    6.0769229940753675    2.0266533490609127
   Cu   Au
     2     4
Direct
  0.5000000000000000  0.4964135961482299  0.9928271922964527
  0.5000000000000000  0.8369197371851058  0.6738394743702116
  0.0000000000000000  0.9950698743396700  0.9901397486793471
  0.5000000000000000  0.1666666666666643  0.3333333333333357
  0.0000000000000000  0.3382634589936657  0.6765269179873172
  0.0000000000000000  0.6666666666666643  0.3333333333333357

  0.00000000E+00  0.00000000E+00  0.00000000E+00
  0.00000000E+00  0.00000000E+00  0.00000000E+00
  0.00000000E+00  0.00000000E+00  0.00000000E+00
  0.00000000E+00  0.00000000E+00  0.00000000E+00
  0.00000000E+00  0.00000000E+00  0.00000000E+00
  0.00000000E+00  0.00000000E+00  0.00000000E+00
