pyclupan: 5-1-3
   1.00000000000000
     0.0000000000000000   -2.0561075191216522   -2.0561075191216522
    -4.1776190919917520    0.0000000000000000    0.0000000000000000
     2.0888095459958760    6.2224114371873300   -4.1663039180656778
   Ag   Au
     2     3
Direct
  0.2000563098667172  0.2000563098667172  0.4001126197334273
  0.3999436901332842  0.3999436901332842  0.7998873802665685
  0.9993882279575601  0.9993882279575601  0.9987764559151202
  0.6006117720424413  0.6006117720424413  0.2012235440848826
  0.7999999999999972  0.7999999999999972  0.6000000000000014

  0.00000000E+00  0.00000000E+00  0.00000000E+00
  0.00000000E+00  0.00000000E+00  0.00000000E+00
  0.00000000E+00  0.00000000E+00  0.00000000E+00
  0.00000000E+00  0.00000000E+00  0.00000000E+00
  0.00000000E+00  0.00000000E+00  0.00000000E+00
