pyclupan: 4-8-345
   1.00000000000000
     5.0666888305254361    0.0000000000000000    0.0083240129667020
     0.0000000000000000    3.1094235066799860    0.0000000000000000
     0.0175945169738961    0.0000000000000000   10.8386704144153008
   Si   Al   C    N
     5     3     5     3
Direct
  0.9989726756338513  0.0000000000000000  0.3334337119598629
  0.0086129546159697  0.5000000000000000  0.0826758551832611
  0.4951860471092289  0.5000000000000000  0.9159614903626547
  0.4889010475585494  0.0000000000000000  0.6692153638218841
  0.5003429914386786  0.0000000000000000  0.1715213807492191
  0.0089058072847052  0.0000000000000000  0.8325781522638920
  0.0060679044957013  0.5000000000000000  0.5823874110631664
  0.4985434840697849  0.5000000000000000  0.4146355475784844
  0.6095255361553171  0.0000000000000000  0.8404505217748124
  0.6336543762364570  0.0000000000000000  0.3212559714035024
  0.1357572555725852  0.0000000000000000  0.6690942426529247
  0.1094450796184034  0.5000000000000000  0.4063929703802884
  0.1263773812207916  0.0000000000000000  0.1585738351001282
  0.6155038453199779  0.5000000000000000  0.5941692495089796
  0.6298457899973045  0.5000000000000000  0.0779746409123376
  0.1343578236726941  0.5000000000000000  0.9296796552845876

  0.00000000E+00  0.00000000E+00  0.00000000E+00
  0.00000000E+00  0.00000000E+00  0.00000000E+00
  0.00000000E+00  0.00000000E+00  0.00000000E+00
  0.00000000E+00  0.00000000E+00  0.00000000E+00
  0.00000000E+00  0.00000000E+00  0.00000000E+00
  0.00000000E+00  0.00000000E+00  0.00000000E+00
  0.00000000E+00  0.00000000E+00  0.00000000E+00
  0.00000000E+00  0.00000000E+00  0.00000000E+00
  0.00000000E+00  0.00000000E+00  0.00000000E+00
  0.00000000E+00  0.00000000E+00  0.00000000E+00
  0.00000000E+00  0.00000000E+00  0.00000000E+00
  0.00000000E+00  0.00000000E+00  0.00000000E+00
  0.00000000E+00  0.00000000E+00  0.00000000E+00
  0.00000000E+00  0.00000000E+00  0.00000000E+00
  0.00000000E+00  0.00000000E+00  0.00000000E+00
  0.00000000E+00  0.00000000E+00  0.00000000E+00
