pyclupan: 6-0-0
   1.00000000000000
     2.0706265005578790    0.0000000000000000    2.0706265005578790
     0.0000000000000000   -2.0706265005578790   -2.0706265005578790
     8.3012824353949295    8.3012824353949295   -8.3012824353949295
   Ag   Au
     5     1
Direct
  0.3333333333333357  0.6666666666666643  0.1672680559397079
  0.6666666666666643  0.3333333333333357  0.3331791923923504
  0.0000000000000000  0.0000000000000000  0.5000000000000000
  0.3333333333333357  0.6666666666666643  0.6668208076076496
  0.6666666666666643  0.3333333333333357  0.8327319440602921
  0.0000000000000000  0.0000000000000000  0.0000000000000000

  0.00000000E+00  0.00000000E+00  0.00000000E+00
  0.00000000E+00  0.00000000E+00  0.00000000E+00
  0.00000000E+00  0.00000000E+00  0.00000000E+00
  0.00000000E+00  0.00000000E+00  0.00000000E+00
  0.00000000E+00  0.00000000E+00  0.00000000E+00
  0.00000000E+00  0.00000000E+00  0.00000000E+00
