Ag-Au
   1.00000000000000
     4.2454315317732148    0.0000000000000000    0.0000000000000000
     0.0000000000000000    4.2454315317732148    0.0000000000000000
     0.0000000000000000    0.0000000000000000    4.2454315317732148
   Ag  Au
     3  1
Direct
  0.0000000000000000  0.0000000000000000  0.0000000000000000
  0.0000000000000000  0.5000000000000000  0.5000000000000000
  0.5000000000000000  0.0000000000000000  0.5000000000000000
  0.5000000000000000  0.5000000000000000  0.0000000000000000
