pyclupan: 3-1-259
   1.00000000000000
    11.4125823237972934    0.0000000000000000    0.0088572741126566
     0.0000000000000000    3.1216101428906899    0.0000000000000000
    -1.8226141414361361    0.0000000000000000    7.1694506524607053
   Si   Al   C    N
     4     8     4     8
Direct
  0.2163929967664657  0.0000000000000000  0.4446315812750541
  0.1163263967774100  0.5000000000000000  0.7273175957118383
  0.7163929967664657  0.5000000000000000  0.4446315812750541
  0.6163263967774100  0.0000000000000000  0.7273175957118383
  0.3882351104487256  0.5000000000000000  0.7776770138261995
  0.0596033166122822  0.5000000000000000  0.1099544857563330
  0.2801460912293194  0.0000000000000000  0.0553799325440565
  0.4459644787338632  0.5000000000000000  0.3793507554904494
  0.8882351104487256  0.0000000000000000  0.7776770138261995
  0.5596033166122822  0.0000000000000000  0.1099544857563330
  0.7801460912293194  0.5000000000000000  0.0553799325440565
  0.9459644787338632  0.0000000000000000  0.3793507554904494
  0.2575317826880763  0.5000000000000000  0.9024811827005053
  0.0986285734682681  0.0000000000000000  0.5770372599552616
  0.7575317826880763  0.0000000000000000  0.9024811827005053
  0.5986285734682610  0.5000000000000000  0.5770372599552616
  0.4316150274569353  0.0000000000000000  0.2338460540781568
  0.1550121910578639  0.0000000000000000  0.2003252666655939
  0.3096932012725873  0.5000000000000000  0.5004172596510656
  0.4908508334881816  0.0000000000000000  0.8415816123454789
  0.9316150274569353  0.5000000000000000  0.2338460540781568
  0.6550121910578639  0.5000000000000000  0.2003252666655939
  0.8096932012725873  0.0000000000000000  0.5004172596510656
  0.9908508334881816  0.5000000000000000  0.8415816123454789

  0.00000000E+00  0.00000000E+00  0.00000000E+00
  0.00000000E+00  0.00000000E+00  0.00000000E+00
  0.00000000E+00  0.00000000E+00  0.00000000E+00
  0.00000000E+00  0.00000000E+00  0.00000000E+00
  0.00000000E+00  0.00000000E+00  0.00000000E+00
  0.00000000E+00  0.00000000E+00  0.00000000E+00
  0.00000000E+00  0.00000000E+00  0.00000000E+00
  0.00000000E+00  0.00000000E+00  0.00000000E+00
  0.00000000E+00  0.00000000E+00  0.00000000E+00
  0.00000000E+00  0.00000000E+00  0.00000000E+00
  0.00000000E+00  0.00000000E+00  0.00000000E+00
  0.00000000E+00  0.00000000E+00  0.00000000E+00
  0.00000000E+00  0.00000000E+00  0.00000000E+00
  0.00000000E+00  0.00000000E+00  0.00000000E+00
  0.00000000E+00  0.00000000E+00  0.00000000E+00
  0.00000000E+00  0.00000000E+00  0.00000000E+00
  0.00000000E+00  0.00000000E+00  0.00000000E+00
  0.00000000E+00  0.00000000E+00  0.00000000E+00
  0.00000000E+00  0.00000000E+00  0.00000000E+00
  0.00000000E+00  0.00000000E+00  0.00000000E+00
  0.00000000E+00  0.00000000E+00  0.00000000E+00
  0.00000000E+00  0.00000000E+00  0.00000000E+00
  0.00000000E+00  0.00000000E+00  0.00000000E+00
  0.00000000E+00  0.00000000E+00  0.00000000E+00
