pyclupan: 4-6-251
   1.00000000000000
     5.9251341713653733   -0.0533705876520726    0.0005454355401397
    -2.6445711393128124    5.3543038778523604    0.0134553443374605
    -1.6396298969124137   -2.6365717317742869    5.3723015664989919
   Si   Al   C    N
     5     3     5     3
Direct
  0.6685304869342019  0.6771610343076873  0.3354163192321806
  0.6570271843237379  0.6619691026965029  0.8291255881707045
  0.5785144273820038  0.0726149430481584  0.6690372801760986
  0.0857738991750239  0.5895925844641141  0.1687036609016133
  0.0962368224378594  0.5932846040102646  0.6736184439370732
  0.1670492845513110  0.1676403263542241  0.3372677157553454
  0.1627554936147533  0.1738317128778135  0.8296108112580711
  0.5858740935063338  0.0751630598334359  0.1629704024441381
  0.3501816739745252  0.9751291630549730  0.8246361635700623
  0.8523848316761260  0.4721857605170996  0.8294240091244589
  0.7705178037571088  0.8740508597476691  0.1605854633267825
  0.7556059649667617  0.8809481201082079  0.6585562242115017
  0.2751340771088024  0.4123307240064733  0.6675998207025344
  0.3544327535301264  0.9652976682312087  0.3384924399898281
  0.8611577871286045  0.4905568886246670  0.3372826674899940
  0.2788234159327132  0.4182434481175008  0.1776729897096132

  0.00000000E+00  0.00000000E+00  0.00000000E+00
  0.00000000E+00  0.00000000E+00  0.00000000E+00
  0.00000000E+00  0.00000000E+00  0.00000000E+00
  0.00000000E+00  0.00000000E+00  0.00000000E+00
  0.00000000E+00  0.00000000E+00  0.00000000E+00
  0.00000000E+00  0.00000000E+00  0.00000000E+00
  0.00000000E+00  0.00000000E+00  0.00000000E+00
  0.00000000E+00  0.00000000E+00  0.00000000E+00
  0.00000000E+00  0.00000000E+00  0.00000000E+00
  0.00000000E+00  0.00000000E+00  0.00000000E+00
  0.00000000E+00  0.00000000E+00  0.00000000E+00
  0.00000000E+00  0.00000000E+00  0.00000000E+00
  0.00000000E+00  0.00000000E+00  0.00000000E+00
  0.00000000E+00  0.00000000E+00  0.00000000E+00
  0.00000000E+00  0.00000000E+00  0.00000000E+00
  0.00000000E+00  0.00000000E+00  0.00000000E+00
