pyclupan: 3-1-4
1.0
   4.000000000000000 0.000000000000000 0.000000000000000
   0.000000000000000 16.970562748477139 0.000000000000000
   0.000000000000000 0.000000000000000 5.656854249492381
 Sr  Cu  O
 6  6  14
Direct
   0.000000000000000 0.000000000000000 0.000000000000000
   0.000000000000000 0.166666666666667 0.500000000000001
   0.000000000000000 0.333333333333333 0.000000000000001
   0.000000000000000 0.500000000000000 0.500000000000000
   0.000000000000000 0.666666666666667 0.000000000000001
   0.000000000000000 0.833333333333333 0.500000000000001
   0.500000000000000 0.000000000000000 0.500000000000000
   0.500000000000000 0.166666666666667 0.000000000000001
   0.500000000000000 0.333333333333333 0.500000000000001
   0.500000000000000 0.500000000000000 0.000000000000000
   0.500000000000000 0.666666666666667 0.500000000000001
   0.500000000000000 0.833333333333333 0.000000000000001
   0.500000000000000 0.083333333333334 0.250000000000000
   0.500000000000000 0.250000000000000 0.750000000000000
   0.000000000000000 0.000000000000000 0.500000000000000
   0.000000000000000 0.166666666666667 0.000000000000001
   0.000000000000000 0.333333333333333 0.500000000000001
   0.500000000000000 0.250000000000000 0.250000000000000
   0.500000000000000 0.416666666666666 0.750000000000000
   0.500000000000000 0.583333333333334 0.750000000000000
   0.500000000000000 0.750000000000000 0.250000000000000
   0.000000000000000 0.500000000000000 0.000000000000000
   0.000000000000000 0.666666666666667 0.500000000000001
   0.000000000000000 0.833333333333333 0.000000000000001
   0.500000000000000 0.750000000000000 0.750000000000000
   0.500000000000000 0.916666666666666 0.250000000000000
