pyclupan: 3-3-11
   1.00000000000000
    16.1392316069700783    0.0000000000000000   -0.0569626344927141
     0.0000000000000000    3.1182000419071376    0.0000000000000000
    -0.0179107617882012    0.0000000000000000    5.0761701697388180
   Si   Al   C    N
     8     4     8     4
Direct
  0.2194391246123928  0.0000000000000000  0.0030420475006352
  0.0549566419826775  0.5000000000000000  0.9997619502473896
  0.4472099574323352  0.0000000000000000  0.4891476229106857
  0.2790160321040034  0.5000000000000000  0.5037944043915772
  0.7194391246123928  0.5000000000000000  0.0030420475006352
  0.5549566419826775  0.0000000000000000  0.9997619502473896
  0.9472099574323352  0.5000000000000000  0.4891476229106857
  0.7790160321040034  0.0000000000000000  0.5037944043915772
  0.3910332126847464  0.5000000000000000  0.9960243088371499
  0.1082423700983099  0.0000000000000000  0.5073987561310318
  0.8910332126847464  0.0000000000000000  0.9960243088371499
  0.6082423700983099  0.5000000000000000  0.5073987561310318
  0.2326331347464361  0.0000000000000000  0.6342603439548355
  0.0479702158111550  0.5000000000000000  0.6365763885156923
  0.4460592952971751  0.0000000000000000  0.1304030421263604
  0.1131527275652218  0.0000000000000000  0.1117927870780164
  0.7326331347464361  0.5000000000000000  0.6342603439548355
  0.5479702158111550  0.0000000000000000  0.6365763885156923
  0.9460592952971751  0.5000000000000000  0.1304030421263604
  0.6131527275652218  0.5000000000000000  0.1117927870780164
  0.3868487343595035  0.5000000000000000  0.6024158149378493
  0.2734385533060362  0.5000000000000000  0.1353825333687766
  0.8868487343595035  0.0000000000000000  0.6024158149378493
  0.7734385533060362  0.0000000000000000  0.1353825333687766

  0.00000000E+00  0.00000000E+00  0.00000000E+00
  0.00000000E+00  0.00000000E+00  0.00000000E+00
  0.00000000E+00  0.00000000E+00  0.00000000E+00
  0.00000000E+00  0.00000000E+00  0.00000000E+00
  0.00000000E+00  0.00000000E+00  0.00000000E+00
  0.00000000E+00  0.00000000E+00  0.00000000E+00
  0.00000000E+00  0.00000000E+00  0.00000000E+00
  0.00000000E+00  0.00000000E+00  0.00000000E+00
  0.00000000E+00  0.00000000E+00  0.00000000E+00
  0.00000000E+00  0.00000000E+00  0.00000000E+00
  0.00000000E+00  0.00000000E+00  0.00000000E+00
  0.00000000E+00  0.00000000E+00  0.00000000E+00
  0.00000000E+00  0.00000000E+00  0.00000000E+00
  0.00000000E+00  0.00000000E+00  0.00000000E+00
  0.00000000E+00  0.00000000E+00  0.00000000E+00
  0.00000000E+00  0.00000000E+00  0.00000000E+00
  0.00000000E+00  0.00000000E+00  0.00000000E+00
  0.00000000E+00  0.00000000E+00  0.00000000E+00
  0.00000000E+00  0.00000000E+00  0.00000000E+00
  0.00000000E+00  0.00000000E+00  0.00000000E+00
  0.00000000E+00  0.00000000E+00  0.00000000E+00
  0.00000000E+00  0.00000000E+00  0.00000000E+00
  0.00000000E+00  0.00000000E+00  0.00000000E+00
  0.00000000E+00  0.00000000E+00  0.00000000E+00
