pyclupan: 6-9-5
   1.00000000000000
     4.1709966078693279    0.0000000000000000    0.0000000000000000
     0.0000000000000000    0.0000000000000000   -4.1306198501990776
     0.0000000000000000    6.2183048784443899    2.0653099250995388
   Ag   Au
     2     4
Direct
  0.5000000000000000  0.4995355241233881  0.9990710482467833
  0.5000000000000000  0.8337978092099476  0.6675956184198810
  0.0000000000000000  0.9993905819344064  0.9987811638688058
  0.5000000000000000  0.1666666666666643  0.3333333333333357
  0.0000000000000000  0.3339427513989293  0.6678855027978585
  0.0000000000000000  0.6666666666666643  0.3333333333333357

  0.00000000E+00  0.00000000E+00  0.00000000E+00
  0.00000000E+00  0.00000000E+00  0.00000000E+00
  0.00000000E+00  0.00000000E+00  0.00000000E+00
  0.00000000E+00  0.00000000E+00  0.00000000E+00
  0.00000000E+00  0.00000000E+00  0.00000000E+00
  0.00000000E+00  0.00000000E+00  0.00000000E+00
