pyclupan: 4-8-15
1.0
   11.313708498984761 0.000000000000000 0.000000000000000
   0.000000000000000 8.000000000000000 0.000000000000000
   -5.656854249492380 0.000000000000000 5.656854249492381
 Sr  Cu  O
 8  8  16
Direct
   0.250000000000000 0.750000000000000 0.000000000000000
   0.250000000000000 0.250000000000000 0.000000000000000
   0.750000000000000 0.750000000000000 0.500000000000000
   0.250000000000000 0.750000000000000 0.500000000000000
   0.750000000000000 0.250000000000000 0.000000000000000
   0.750000000000000 0.750000000000000 0.000000000000000
   0.250000000000000 0.250000000000000 0.500000000000000
   0.750000000000000 0.250000000000000 0.500000000000000
   0.500000000000000 0.500000000000000 0.500000000000000
   0.000000000000000 0.500000000000000 0.500000000000000
   0.500000000000000 0.000000000000000 0.000000000000000
   0.500000000000000 0.500000000000000 0.000000000000000
   0.000000000000000 0.000000000000000 0.500000000000000
   0.500000000000000 0.000000000000000 0.500000000000000
   0.000000000000000 0.500000000000000 0.000000000000000
   0.000000000000000 0.000000000000000 0.000000000000000
   0.250000000000000 0.500000000000000 0.750000000000000
   0.000000000000000 0.500000000000000 0.250000000000000
   0.500000000000000 0.000000000000000 0.750000000000000
   0.500000000000000 0.500000000000000 0.750000000000000
   0.000000000000000 0.250000000000000 0.500000000000000
   0.500000000000000 0.250000000000000 0.500000000000000
   0.500000000000000 0.250000000000000 0.000000000000000
   0.500000000000000 0.750000000000000 0.000000000000000
   0.750000000000000 0.000000000000000 0.750000000000000
   0.500000000000000 0.000000000000000 0.250000000000000
   0.000000000000000 0.500000000000000 0.750000000000000
   0.000000000000000 0.000000000000000 0.750000000000000
   0.500000000000000 0.750000000000000 0.500000000000000
   0.000000000000000 0.750000000000000 0.500000000000000
   0.000000000000000 0.750000000000000 0.000000000000000
   0.000000000000000 0.250000000000000 0.000000000000000
