pyclupan: 5-1-9
   1.00000000000000
     0.0000000000000000   -2.0343313175416688   -2.0343313175416688
    -3.6950367924319343    0.0000000000000000    0.0000000000000000
     1.8475183962159671    6.1931817317536302   -4.1588504142119609
   Cu   Ag   Au
     2     2     1
Direct
  0.2044873449233222  0.2044873449233222  0.4089746898466373
  0.3955126550766792  0.3955126550766792  0.7910253101533584
  0.9947286512819744  0.9947286512819744  0.9894573025639559
  0.6052713487180270  0.6052713487180270  0.2105426974360469
  0.7999999999999972  0.7999999999999972  0.6000000000000014

  0.00000000E+00  0.00000000E+00  0.00000000E+00
  0.00000000E+00  0.00000000E+00  0.00000000E+00
  0.00000000E+00  0.00000000E+00  0.00000000E+00
  0.00000000E+00  0.00000000E+00  0.00000000E+00
  0.00000000E+00  0.00000000E+00  0.00000000E+00
