pyclupan: 6-1-2
   1.00000000000000
     0.0000000000000000    2.0632255891872910    2.0632255891872910
     4.1658353530165702    0.0000000000000000    0.0000000000000000
     0.0000000000000000    6.2233449025054357   -6.2233449025054357
   Ag   Au
     4     2
Direct
  0.0000000000000000  0.0000000000000000  0.3340394347182993
  0.5000000000000000  0.5000000000000000  0.5004547455970112
  0.0000000000000000  0.0000000000000000  0.6662119210696531
  0.5000000000000000  0.5000000000000000  0.8326272319483721
  0.0000000000000000  0.0000000000000000  0.9980797769871756
  0.5000000000000000  0.5000000000000000  0.1685868896794886

  0.00000000E+00  0.00000000E+00  0.00000000E+00
  0.00000000E+00  0.00000000E+00  0.00000000E+00
  0.00000000E+00  0.00000000E+00  0.00000000E+00
  0.00000000E+00  0.00000000E+00  0.00000000E+00
  0.00000000E+00  0.00000000E+00  0.00000000E+00
  0.00000000E+00  0.00000000E+00  0.00000000E+00
