pyclupan: 6-0-4
   1.00000000000000
     2.0689701137448950    0.0000000000000000    2.0689701137448946
     0.0000000000000000   -2.0689701137448950   -2.0689701137448946
     8.3394972313309612    8.3394972313309594   -8.3394972313309594
   Ag   Au
     3     3
Direct
  0.0000000000000000  0.0000000000000000  0.5009815481758082
  0.3333333333333357  0.6666666666666643  0.6666666666666643
  0.6666666666666643  0.3333333333333357  0.8323517851575275
  0.0000000000000000  0.0000000000000000  0.9981188937259233
  0.3333333333333357  0.6666666666666643  0.1666666666666643
  0.6666666666666643  0.3333333333333357  0.3352144396074124

  0.00000000E+00  0.00000000E+00  0.00000000E+00
  0.00000000E+00  0.00000000E+00  0.00000000E+00
  0.00000000E+00  0.00000000E+00  0.00000000E+00
  0.00000000E+00  0.00000000E+00  0.00000000E+00
  0.00000000E+00  0.00000000E+00  0.00000000E+00
  0.00000000E+00  0.00000000E+00  0.00000000E+00
