pyclupan: 4-4-0
   1.00000000000000
     4.1479668536395096    0.0000000000000000    0.0000000000000000
     0.0000000000000000    0.0000000000000000   -4.1479668536395096
    -2.0739834268197548    4.1484209587548699    2.0739834268197548
   Ag   Au
     3     1
Direct
  0.7500000000000000  0.2500000000000000  0.5000000000000000
  0.5000000000000000  0.5000000000000000  0.0000000000000000
  0.2500000000000000  0.7500000000000000  0.5000000000000000
  0.0000000000000000  0.0000000000000000  0.0000000000000000

  0.00000000E+00  0.00000000E+00  0.00000000E+00
  0.00000000E+00  0.00000000E+00  0.00000000E+00
  0.00000000E+00  0.00000000E+00  0.00000000E+00
  0.00000000E+00  0.00000000E+00  0.00000000E+00
