pyclupan: 6-0-53
   1.00000000000000
     2.0470077240543891    0.0000000000000000    2.0470077240543891
     0.0000000000000000   -2.0470077240543891   -2.0470077240543891
     8.0881361149208360    8.0881361149208360   -8.0881361149208342
   Cu   Ag   Au
     1     4     1
Direct
  0.6666666666666643  0.3333333333333357  0.8330943544114220
  0.0000000000000000  0.0000000000000000  0.9855866574037009
  0.6666666666666643  0.3333333333333357  0.3345927768100836
  0.0000000000000000  0.0000000000000000  0.5067106832707466
  0.3333333333333357  0.6666666666666643  0.6799115036302794
  0.3333333333333357  0.6666666666666643  0.1601040244737817

  0.00000000E+00  0.00000000E+00  0.00000000E+00
  0.00000000E+00  0.00000000E+00  0.00000000E+00
  0.00000000E+00  0.00000000E+00  0.00000000E+00
  0.00000000E+00  0.00000000E+00  0.00000000E+00
  0.00000000E+00  0.00000000E+00  0.00000000E+00
  0.00000000E+00  0.00000000E+00  0.00000000E+00
