pyclupan: 4-7-14
1.0
   5.656854249492381 0.000000000000000 0.000000000000000
   0.000000000000000 5.656854249492381 0.000000000000000
   0.000000000000000 0.000000000000000 8.000000000000000
 Sr  Cu  O
 4  4  9
Direct
   0.000000000000000 0.000000000000000 0.000000000000000
   0.000000000000000 0.000000000000000 0.500000000000000
   0.500000000000000 0.500000000000000 0.000000000000000
   0.500000000000000 0.500000000000000 0.500000000000000
   0.500000000000000 0.000000000000000 0.750000000000000
   0.500000000000000 0.000000000000000 0.250000000000000
   0.000000000000000 0.500000000000000 0.750000000000000
   0.000000000000000 0.500000000000000 0.250000000000000
   0.750000000000000 0.250000000000000 0.250000000000000
   0.250000000000000 0.750000000000000 0.750000000000000
   0.250000000000000 0.750000000000000 0.250000000000000
   0.750000000000000 0.750000000000000 0.250000000000000
   0.250000000000000 0.250000000000000 0.750000000000000
   0.250000000000000 0.250000000000000 0.250000000000000
   0.500000000000000 0.000000000000000 0.500000000000000
   0.000000000000000 0.500000000000000 0.000000000000000
   0.000000000000000 0.500000000000000 0.500000000000000
