pyclupan: 6-5-1
   1.00000000000000
     0.0000000000000000    2.0660674929268277   -2.0660674929268277
     0.0000000000000000   -2.0660674929268277   -2.0660674929268277
   -12.5218429122732449    0.0000000000000000    0.0000000000000000
   Ag   Au
     4     2
Direct
  0.5000000000000000  0.5000000000000000  0.8333333333333357
  0.5000000000000000  0.5000000000000000  0.4997199982827709
  0.0000000000000000  0.0000000000000000  0.3333333333333357
  0.5000000000000000  0.5000000000000000  0.1669466683838934
  0.0000000000000000  0.0000000000000000  0.0002308019033492
  0.0000000000000000  0.0000000000000000  0.6664358647633151

  0.00000000E+00  0.00000000E+00  0.00000000E+00
  0.00000000E+00  0.00000000E+00  0.00000000E+00
  0.00000000E+00  0.00000000E+00  0.00000000E+00
  0.00000000E+00  0.00000000E+00  0.00000000E+00
  0.00000000E+00  0.00000000E+00  0.00000000E+00
  0.00000000E+00  0.00000000E+00  0.00000000E+00
