pyclupan: 6-3-48
   1.00000000000000
     0.0000000000000000   -2.0341751712401157   -2.0341751712401148
    -3.5388895515882721    2.2095406191204994   -2.2095406191204994
     3.5898465025253934    4.4605082823564564   -4.4605082823564564
   Cu   Ag   Au
     2     1     3
Direct
  0.0000000000000000  0.3677424131123814  0.3622157013430467
  0.5000000000000000  0.1219046739107981  0.6340405003541818
  0.0000000000000000  0.6068681129799103  0.6788321033422307
  0.0000000000000000  0.0267898688241885  0.9491762085641682
  0.5000000000000000  0.8804464724848557  0.3297540486008330
  0.5000000000000000  0.4962484586878730  0.0459814377955468

  0.00000000E+00  0.00000000E+00  0.00000000E+00
  0.00000000E+00  0.00000000E+00  0.00000000E+00
  0.00000000E+00  0.00000000E+00  0.00000000E+00
  0.00000000E+00  0.00000000E+00  0.00000000E+00
  0.00000000E+00  0.00000000E+00  0.00000000E+00
  0.00000000E+00  0.00000000E+00  0.00000000E+00
