pyclupan: 4-4-2
   1.00000000000000
     4.1499696358816500    0.0000000000000000    0.0000000000000000
     0.0000000000000000    0.0000000000000000   -4.1499696358816500
    -2.0749848179408250    4.1527604278867285    2.0749848179408250
   Ag   Au
     1     3
Direct
  0.2500000000000000  0.7500000000000000  0.5000000000000000
  0.0000000000000000  0.0000000000000000  0.0000000000000000
  0.7500000000000000  0.2500000000000000  0.5000000000000000
  0.5000000000000000  0.5000000000000000  0.0000000000000000

  0.00000000E+00  0.00000000E+00  0.00000000E+00
  0.00000000E+00  0.00000000E+00  0.00000000E+00
  0.00000000E+00  0.00000000E+00  0.00000000E+00
  0.00000000E+00  0.00000000E+00  0.00000000E+00
