pyclupan: 4-5-15
1.0
   16.970562748477139 0.000000000000000 0.000000000000000
   0.000000000000000 5.656854249492381 0.000000000000000
   -1.885618083164127 0.000000000000000 5.333333333333334
 Sr  Cu  O
 8  8  18
Direct
   0.000000000000000 0.000000000000000 0.000000000000000
   0.750000000000000 0.000000000000000 0.750000000000000
   0.000000000000000 0.500000000000000 0.500000000000000
   0.750000000000000 0.500000000000000 0.250000000000000
   0.500000000000000 0.500000000000000 0.000000000000000
   0.250000000000000 0.500000000000000 0.750000000000000
   0.500000000000000 0.000000000000000 0.500000000000000
   0.250000000000000 0.000000000000000 0.250000000000000
   0.875000000000000 0.000000000000000 0.375000000000000
   0.625000000000000 0.000000000000000 0.125000000000000
   0.875000000000000 0.500000000000000 0.875000000000000
   0.625000000000000 0.500000000000000 0.625000000000000
   0.375000000000000 0.500000000000000 0.375000000000000
   0.125000000000000 0.500000000000000 0.125000000000000
   0.375000000000000 0.000000000000000 0.875000000000000
   0.125000000000000 0.000000000000000 0.625000000000000
   0.750000000000000 0.000000000000000 0.250000000000000
   0.000000000000000 0.500000000000000 0.000000000000000
   0.750000000000000 0.500000000000000 0.750000000000000
   0.625000000000000 0.250000000000000 0.875000000000000
   0.875000000000000 0.750000000000000 0.625000000000000
   0.625000000000000 0.750000000000000 0.375000000000000
   0.875000000000000 0.750000000000000 0.125000000000000
   0.875000000000000 0.250000000000000 0.625000000000000
   0.625000000000000 0.250000000000000 0.375000000000000
   0.250000000000000 0.500000000000000 0.250000000000000
   0.500000000000000 0.000000000000000 0.000000000000000
   0.250000000000000 0.000000000000000 0.750000000000000
   0.125000000000000 0.750000000000000 0.875000000000000
   0.375000000000000 0.250000000000000 0.625000000000000
   0.125000000000000 0.250000000000000 0.375000000000000
   0.375000000000000 0.250000000000000 0.125000000000000
   0.375000000000000 0.750000000000000 0.625000000000000
   0.125000000000000 0.750000000000000 0.375000000000000
