pyclupan: 6-9-7
   1.00000000000000
     3.6555364469276128    0.0000000000000000    0.0000000000000000
     0.0000000000000000    0.0000000000000000   -4.0443970353264076
     0.0000000000000000    6.0753590534718880    2.0221985176632038
   Cu   Ag   Au
     3     1     2
Direct
  0.5000000000000000  0.1666666666666643  0.3333333333333357
  0.5000000000000000  0.4979828999093669  0.9959657998187268
  0.5000000000000000  0.8353504334239688  0.6707008668479375
  0.0000000000000000  0.6666666666666643  0.3333333333333357
  0.0000000000000000  0.0015795661994744  0.0031591323989559
  0.0000000000000000  0.3317537671338613  0.6635075342677084

  0.00000000E+00  0.00000000E+00  0.00000000E+00
  0.00000000E+00  0.00000000E+00  0.00000000E+00
  0.00000000E+00  0.00000000E+00  0.00000000E+00
  0.00000000E+00  0.00000000E+00  0.00000000E+00
  0.00000000E+00  0.00000000E+00  0.00000000E+00
  0.00000000E+00  0.00000000E+00  0.00000000E+00
