pyclupan: 5-0-10
   1.00000000000000
     0.0000000000000000    2.0164100013262556    2.0164100013262556
    -2.0164100013262556    0.0000000000000000   -2.0164100013262556
    -5.7793254532417819   -7.7957354545680380    5.7793254532417819
   Cu   Ag   Au
     2     2     1
Direct
  0.3968716016416352  0.1984358008208176  0.5953074024624527
  0.8031856142276510  0.4015928071138291  0.2047784213414872
  0.1928033943779681  0.5964016971889805  0.7892050915669486
  0.5996831347638008  0.7998415673818968  0.3995247021456976
  0.0074562549889450  0.0037281274944689  0.0111843824834139

  0.00000000E+00  0.00000000E+00  0.00000000E+00
  0.00000000E+00  0.00000000E+00  0.00000000E+00
  0.00000000E+00  0.00000000E+00  0.00000000E+00
  0.00000000E+00  0.00000000E+00  0.00000000E+00
  0.00000000E+00  0.00000000E+00  0.00000000E+00
