pyclupan: 4-7-10
1.0
   5.656854249492381 0.000000000000000 0.000000000000000
   0.000000000000000 5.656854249492381 0.000000000000000
   -5.656854249492380 0.000000000000000 7.999999999999999
 Sr  Cu  O
 4  4  8
Direct
   0.000000000000000 0.750000000000000 0.750000000000000
   0.500000000000000 0.750000000000000 0.250000000000000
   0.500000000000000 0.250000000000000 0.750000000000000
   0.000000000000000 0.250000000000000 0.250000000000000
   0.250000000000000 0.250000000000000 0.000000000000000
   0.750000000000000 0.250000000000000 0.500000000000000
   0.750000000000000 0.750000000000000 0.000000000000000
   0.250000000000000 0.750000000000000 0.500000000000000
   0.000000000000000 0.500000000000000 0.500000000000000
   0.000000000000000 0.000000000000000 0.000000000000000
   0.500000000000000 0.000000000000000 0.500000000000000
   0.000000000000000 0.500000000000000 0.000000000000000
   0.500000000000000 0.000000000000000 0.000000000000000
   0.000000000000000 0.000000000000000 0.500000000000000
   0.500000000000000 0.250000000000000 0.250000000000000
   0.500000000000000 0.750000000000000 0.750000000000000
