pyclupan: 6-2-2
   1.00000000000000
     0.0000000000000000    2.0611331522061636    2.0611331522061636
    -0.0082316819611338   -4.1410772373066989    4.1410772373066989
     6.2701176962095131    0.0108514237319540   -2.0719845759381181
   Ag   Au
     4     2
Direct
  0.3323214979715630  0.6660571842007030  0.6646429959431117
  0.9992323617735295  0.4999668162430950  0.9984647235470661
  0.6674343048931348  0.3333665170902407  0.3348686097862696
  0.3343451686951084  0.1672761491326256  0.6686903373902169
  0.0000082593289150  0.0013499394919023  0.0000165186578371
  0.6666584073377493  0.8319833938414334  0.3333168146754986

  0.00000000E+00  0.00000000E+00  0.00000000E+00
  0.00000000E+00  0.00000000E+00  0.00000000E+00
  0.00000000E+00  0.00000000E+00  0.00000000E+00
  0.00000000E+00  0.00000000E+00  0.00000000E+00
  0.00000000E+00  0.00000000E+00  0.00000000E+00
  0.00000000E+00  0.00000000E+00  0.00000000E+00
