pyclupan: 6-2-36
   1.00000000000000
     0.0000000000000000    2.0509300439966394    2.0509300439966394
     0.1112110924053169   -4.0328325727197942    4.0328325727197933
     5.8291638748677546   -0.1054963466821354   -1.9454336973145030
   Cu   Ag   Au
     2     1     3
Direct
  0.0005883379646860  0.4911763380833136  0.0011766759293721
  0.3327449953686497  0.1754903285833507  0.6654899907372922
  0.6666666666666643  0.8333333333333357  0.3333333333333357
  0.9904417151182514  0.0141226458689516  0.9808834302365170
  0.3428916182150843  0.6525440207977127  0.6857832364301473
  0.6666666666666643  0.3333333333333357  0.3333333333333357

  0.00000000E+00  0.00000000E+00  0.00000000E+00
  0.00000000E+00  0.00000000E+00  0.00000000E+00
  0.00000000E+00  0.00000000E+00  0.00000000E+00
  0.00000000E+00  0.00000000E+00  0.00000000E+00
  0.00000000E+00  0.00000000E+00  0.00000000E+00
  0.00000000E+00  0.00000000E+00  0.00000000E+00
