pyclupan: 4-3-2
   1.00000000000000
     0.0000000000000000   -2.0637113944489647   -2.0637113944489647
     0.0000000000000000    2.0637113944489647   -2.0637113944489647
     8.3963302975725842    0.0000000000000000    0.0000000000000000
   Ag   Au
     1     3
Direct
  0.5000000000000000  0.5000000000000000  0.7500000000000000
  0.0000000000000000  0.0000000000000000  0.9986133106822095
  0.5000000000000000  0.5000000000000000  0.2500000000000000
  0.0000000000000000  0.0000000000000000  0.5013866893177905

  0.00000000E+00  0.00000000E+00  0.00000000E+00
  0.00000000E+00  0.00000000E+00  0.00000000E+00
  0.00000000E+00  0.00000000E+00  0.00000000E+00
  0.00000000E+00  0.00000000E+00  0.00000000E+00
