pyclupan: 3-4-1
   1.00000000000000
     5.3798962554214578   -0.0000000001726992    0.0000000000000000
    -2.6899481275611672    4.6591268270061077    0.0000000000000000
     0.0000000000000000    0.0000000000000000    5.0616438421890244
   Si   Al   C    N
     5     1     5     1
Direct
  0.0000000000000000  0.0000000000000000  0.9911077536518604
  0.6666666666666643  0.3333333333333357  0.9924395611796797
  0.6651388107890028  0.6642183724483459  0.5063274078522824
  0.3357816275516541  0.0009204383406569  0.5063274078522824
  0.9990795616593431  0.3348611892109972  0.5063274078522824
  0.3333333333333357  0.6666666666666643  0.9929322156640552
  0.3333333333333357  0.6666666666666643  0.3919983731196908
  0.6666666666666643  0.3333333333333357  0.3711743186962266
  0.6875575232830684  0.6692636779546390  0.8731956989444498
  0.3307363220453610  0.0182938453284294  0.8731956989444498
  0.9817061546715706  0.3124424767169316  0.8731956989444498
  0.0000000000000000  0.0000000000000000  0.3717784572982765

  0.00000000E+00  0.00000000E+00  0.00000000E+00
  0.00000000E+00  0.00000000E+00  0.00000000E+00
  0.00000000E+00  0.00000000E+00  0.00000000E+00
  0.00000000E+00  0.00000000E+00  0.00000000E+00
  0.00000000E+00  0.00000000E+00  0.00000000E+00
  0.00000000E+00  0.00000000E+00  0.00000000E+00
  0.00000000E+00  0.00000000E+00  0.00000000E+00
  0.00000000E+00  0.00000000E+00  0.00000000E+00
  0.00000000E+00  0.00000000E+00  0.00000000E+00
  0.00000000E+00  0.00000000E+00  0.00000000E+00
  0.00000000E+00  0.00000000E+00  0.00000000E+00
  0.00000000E+00  0.00000000E+00  0.00000000E+00
