pyclupan: 4-2-1327
   1.00000000000000
    20.7752734610468259    0.0000000000000000   -0.0776654867722330
     0.0000000000000000    3.1302236555661853    0.0000000000000000
    -1.4374962483246327    0.0000000000000000    5.3325472353798826
   Si   Al   C    N
     6    10     6    10
Direct
  0.7508932506528723  0.5000000000000000  0.5876758596096465
  0.6243815841225100  0.5000000000000000  0.8129875352309952
  0.6225196999338252  0.0000000000000000  0.2810215307308894
  0.2508932506528723  0.0000000000000000  0.5876758596096465
  0.1243815841225100  0.0000000000000000  0.8129875352309952
  0.1225196999338252  0.5000000000000000  0.2810215307308894
  0.9992170362831558  0.0000000000000000  0.3405188900977549
  0.7573833025462022  0.0000000000000000  0.0869892410161697
  0.0005867407659821  0.5000000000000000  0.8352453769305086
  0.8742069596926640  0.5000000000000000  0.0332324305323937
  0.8804188108192790  0.0000000000000000  0.5474621165697684
  0.4992170362831558  0.5000000000000000  0.3405188900977549
  0.2573833025462022  0.5000000000000000  0.0869892410161697
  0.5005867407659821  0.0000000000000000  0.8352453769305086
  0.3742069596926640  0.0000000000000000  0.0332324305323937
  0.3804188108192790  0.5000000000000000  0.5474621165697684
  0.9031371236215762  0.0000000000000000  0.2350030611755045
  0.7714847330549333  0.5000000000000000  0.9163683975227102
  0.5371924188749730  0.5000000000000000  0.7072684924576862
  0.4031371236215762  0.5000000000000000  0.2350030611755045
  0.2714847330549333  0.0000000000000000  0.9163683975227102
  0.0371924188749730  0.0000000000000000  0.7072684924576862
  0.6548249180434382  0.0000000000000000  0.0044694238372358
  0.9054371481272838  0.5000000000000000  0.7397712958187341
  0.6564788053987414  0.5000000000000000  0.4626168610282306
  0.7743746981135544  0.0000000000000000  0.4529425059759262
  0.5374627699490091  0.0000000000000000  0.2064269814658388
  0.1548249180434382  0.5000000000000000  0.0044694238372358
  0.4054371481272838  0.0000000000000000  0.7397712958187341
  0.1564788053987414  0.0000000000000000  0.4626168610282306
  0.2743746981135544  0.5000000000000000  0.4529425059759262
  0.0374627699490091  0.5000000000000000  0.2064269814658388

  0.00000000E+00  0.00000000E+00  0.00000000E+00
  0.00000000E+00  0.00000000E+00  0.00000000E+00
  0.00000000E+00  0.00000000E+00  0.00000000E+00
  0.00000000E+00  0.00000000E+00  0.00000000E+00
  0.00000000E+00  0.00000000E+00  0.00000000E+00
  0.00000000E+00  0.00000000E+00  0.00000000E+00
  0.00000000E+00  0.00000000E+00  0.00000000E+00
  0.00000000E+00  0.00000000E+00  0.00000000E+00
  0.00000000E+00  0.00000000E+00  0.00000000E+00
  0.00000000E+00  0.00000000E+00  0.00000000E+00
  0.00000000E+00  0.00000000E+00  0.00000000E+00
  0.00000000E+00  0.00000000E+00  0.00000000E+00
  0.00000000E+00  0.00000000E+00  0.00000000E+00
  0.00000000E+00  0.00000000E+00  0.00000000E+00
  0.00000000E+00  0.00000000E+00  0.00000000E+00
  0.00000000E+00  0.00000000E+00  0.00000000E+00
  0.00000000E+00  0.00000000E+00  0.00000000E+00
  0.00000000E+00  0.00000000E+00  0.00000000E+00
  0.00000000E+00  0.00000000E+00  0.00000000E+00
  0.00000000E+00  0.00000000E+00  0.00000000E+00
  0.00000000E+00  0.00000000E+00  0.00000000E+00
  0.00000000E+00  0.00000000E+00  0.00000000E+00
  0.00000000E+00  0.00000000E+00  0.00000000E+00
  0.00000000E+00  0.00000000E+00  0.00000000E+00
  0.00000000E+00  0.00000000E+00  0.00000000E+00
  0.00000000E+00  0.00000000E+00  0.00000000E+00
  0.00000000E+00  0.00000000E+00  0.00000000E+00
  0.00000000E+00  0.00000000E+00  0.00000000E+00
  0.00000000E+00  0.00000000E+00  0.00000000E+00
  0.00000000E+00  0.00000000E+00  0.00000000E+00
  0.00000000E+00  0.00000000E+00  0.00000000E+00
  0.00000000E+00  0.00000000E+00  0.00000000E+00
