pyclupan: 6-0-2
   1.00000000000000
     2.0686814800380287    0.0000000000000000    2.0686814800380287
     0.0000000000000000   -2.0686814800380287   -2.0686814800380287
     8.3225527118344882    8.3225527118344882   -8.3225527118344882
   Ag   Au
     4     2
Direct
  0.6666666666666643  0.3333333333333357  0.3341811313237741
  0.0000000000000000  0.0000000000000000  0.4998301099870872
  0.3333333333333357  0.6666666666666643  0.6668365566795771
  0.6666666666666643  0.3333333333333357  0.8324855353428973
  0.0000000000000000  0.0000000000000000  0.9983524623584117
  0.3333333333333357  0.6666666666666643  0.1683142043082526

  0.00000000E+00  0.00000000E+00  0.00000000E+00
  0.00000000E+00  0.00000000E+00  0.00000000E+00
  0.00000000E+00  0.00000000E+00  0.00000000E+00
  0.00000000E+00  0.00000000E+00  0.00000000E+00
  0.00000000E+00  0.00000000E+00  0.00000000E+00
  0.00000000E+00  0.00000000E+00  0.00000000E+00
