pyclupan: 5-4-20
   1.00000000000000
    -4.1535858010714284    0.0000000000000000    0.0000000000000000
    -2.0767929005357142   -4.1532112527308689   -2.0766056257046124
     2.0767929005357142   -2.0766056257046124    4.1532112527308689
   Ag   Au
     1     4
Direct
  0.3999999999999986  0.3999999999999986  0.2000000000000028
  0.0001144824455466  0.0001328375132843  0.0003618024043774
  0.6002473199588323  0.5996381975956240  0.8001328375132815
  0.1997526800411720  0.2003618024043803  0.5998671624867171
  0.7998855175544506  0.7998671624867129  0.3996381975956211

  0.00000000E+00  0.00000000E+00  0.00000000E+00
  0.00000000E+00  0.00000000E+00  0.00000000E+00
  0.00000000E+00  0.00000000E+00  0.00000000E+00
  0.00000000E+00  0.00000000E+00  0.00000000E+00
  0.00000000E+00  0.00000000E+00  0.00000000E+00
