pyclupan: 5-3-3
   1.00000000000000
     0.0000000000000000   -2.0554649705170123    2.0554649705170123
     0.0000000000000000   -2.0554649705170123   -2.0554649705170123
    10.5440440737594034    2.0554649705170123    0.0000000000000000
   Ag   Au
     2     3
Direct
  0.2000714595673756  0.2000714595673756  0.4001429191347441
  0.3999285404326258  0.3999285404326258  0.7998570808652516
  0.9991806277964557  0.9991806277964557  0.9983612555929113
  0.6008193722035458  0.6008193722035458  0.2016387444070915
  0.7999999999999972  0.7999999999999972  0.6000000000000014

  0.00000000E+00  0.00000000E+00  0.00000000E+00
  0.00000000E+00  0.00000000E+00  0.00000000E+00
  0.00000000E+00  0.00000000E+00  0.00000000E+00
  0.00000000E+00  0.00000000E+00  0.00000000E+00
  0.00000000E+00  0.00000000E+00  0.00000000E+00
