pyclupan: 6-4-3
   1.00000000000000
     0.0000000000000000   -1.9473282441245023   -1.9473282441245021
     1.8423247205699367    3.8346552667980727   -1.8873270226735701
     5.6859426251272813   -1.9413170537824080    3.8886452979069119
   Cu   Ag
     4     2
Direct
  0.8333333333333357  0.5000000000000000  0.1666666666666643
  0.5163083607246790  0.5187066138365211  0.5139101076128298
  0.3333333333333357  0.0000000000000000  0.6666666666666643
  0.1503583059419853  0.4812933861634789  0.8194232257205059
  0.9890415696493307  0.9895173243873643  0.9885658149113041
  0.6776250970173336  0.0104826756126357  0.3447675184220316

  0.00000000E+00  0.00000000E+00  0.00000000E+00
  0.00000000E+00  0.00000000E+00  0.00000000E+00
  0.00000000E+00  0.00000000E+00  0.00000000E+00
  0.00000000E+00  0.00000000E+00  0.00000000E+00
  0.00000000E+00  0.00000000E+00  0.00000000E+00
  0.00000000E+00  0.00000000E+00  0.00000000E+00
